K  Mn O                                 
    1.000000000000000     
     2.8284608034332082    6.5974699583397252   -0.0066513836540075
    -2.8284604634343582    6.5974698270090553   -0.0066513596762259
    -0.0000000460346101    0.5864713505053056   15.5188765430077424
   K    Mn   O 
     4    12    24
Direct
     0.6539494264374207    0.3262249331143016    0.5990663790152430
     0.3262367764151077    0.6539403337215870    0.0990667864439060
     0.6737750384097232    0.3460506401695099    0.9009336435984663
     0.3460594999427457    0.6737633384900300    0.4009331634182655
     0.3754471979683131    0.1258056053828339    0.2499999972549190
     0.8741943644515074    0.6245528753457450    0.2500000268429343
     0.3637924569170038    0.1117552458847555    0.5804619362425262
     0.8686543891585885    0.6182834138307546    0.5810510321303859
     0.8882447550947911    0.6362075932230881    0.9195380187298566
     0.3817166226455471    0.1313456451881680    0.9189489210214857
     0.6245506098367544    0.8741973194758926    0.7499998103980388
     0.1258026267871526    0.3754493960518810    0.7500001737148002
     0.1117978850845590    0.3637633068145919    0.0804642829026392
     0.6183120292108151    0.8686211046216182    0.0810517483834982
     0.6362365735922224    0.8882021649042293    0.4195357532358229
     0.1313789388418297    0.3816878873017859    0.4189482757951714
     0.8142238784133380    0.5615417254539535    0.8157848312566814
     0.3098610811763906    0.0615739505605666    0.8153190095820959
     0.4384583069098592    0.1857760544608968    0.6842151467152776
     0.9384259669801945    0.6901389651782053    0.6846809651034401
     0.0615647876854657    0.3098683753044360    0.3153194607684033
     0.5615515847491753    0.8142112940877095    0.3157828890809665
     0.1857888179581578    0.4384483145444856    0.1842171812107256
     0.6901316275547501    0.9384351899105743    0.1846805689214392
     0.7104765824975479    0.9626064045052442    0.8742290481942230
     0.2174292546555995    0.4593419933168452    0.8752210237069608
     0.0373936123187549    0.2895234864890512    0.6257709352028260
     0.5406580211731175    0.7825708467262493    0.6247789446819331
     0.4593010328404483    0.2174587464763927    0.3752217974482399
     0.9625800605763337    0.7105129359611024    0.3742258950869516
     0.7825411409490158    0.5406990143287685    0.1247782871775921
     0.2894870937329803    0.0374198133065356    0.1257740926089088
     0.5561544546759973    0.7997927042426046    0.9715436618163299
     0.0506069706622221    0.3041987880623800    0.9705914974528143
     0.2002072409730678    0.4438455199411543    0.5284563106422384
     0.6958011872011284    0.9493930023586152    0.5294084865229374
     0.3041930211817083    0.0506077688542973    0.4705915116221342
     0.7997856412081804    0.5561628973856105    0.4715444677312725
     0.9493922125213730    0.6958070946650277    0.0294084954792641
     0.4438372306111123    0.2002143103585208    0.0284555428583851
 
  0.00000000E+00  0.00000000E+00  0.00000000E+00
  0.00000000E+00  0.00000000E+00  0.00000000E+00
  0.00000000E+00  0.00000000E+00  0.00000000E+00
  0.00000000E+00  0.00000000E+00  0.00000000E+00
  0.00000000E+00  0.00000000E+00  0.00000000E+00
  0.00000000E+00  0.00000000E+00  0.00000000E+00
  0.00000000E+00  0.00000000E+00  0.00000000E+00
  0.00000000E+00  0.00000000E+00  0.00000000E+00
  0.00000000E+00  0.00000000E+00  0.00000000E+00
  0.00000000E+00  0.00000000E+00  0.00000000E+00
  0.00000000E+00  0.00000000E+00  0.00000000E+00
  0.00000000E+00  0.00000000E+00  0.00000000E+00
  0.00000000E+00  0.00000000E+00  0.00000000E+00
  0.00000000E+00  0.00000000E+00  0.00000000E+00
  0.00000000E+00  0.00000000E+00  0.00000000E+00
  0.00000000E+00  0.00000000E+00  0.00000000E+00
  0.00000000E+00  0.00000000E+00  0.00000000E+00
  0.00000000E+00  0.00000000E+00  0.00000000E+00
  0.00000000E+00  0.00000000E+00  0.00000000E+00
  0.00000000E+00  0.00000000E+00  0.00000000E+00
  0.00000000E+00  0.00000000E+00  0.00000000E+00
  0.00000000E+00  0.00000000E+00  0.00000000E+00
  0.00000000E+00  0.00000000E+00  0.00000000E+00
  0.00000000E+00  0.00000000E+00  0.00000000E+00
  0.00000000E+00  0.00000000E+00  0.00000000E+00
  0.00000000E+00  0.00000000E+00  0.00000000E+00
  0.00000000E+00  0.00000000E+00  0.00000000E+00
  0.00000000E+00  0.00000000E+00  0.00000000E+00
  0.00000000E+00  0.00000000E+00  0.00000000E+00
  0.00000000E+00  0.00000000E+00  0.00000000E+00
  0.00000000E+00  0.00000000E+00  0.00000000E+00
  0.00000000E+00  0.00000000E+00  0.00000000E+00
  0.00000000E+00  0.00000000E+00  0.00000000E+00
  0.00000000E+00  0.00000000E+00  0.00000000E+00
  0.00000000E+00  0.00000000E+00  0.00000000E+00
  0.00000000E+00  0.00000000E+00  0.00000000E+00
  0.00000000E+00  0.00000000E+00  0.00000000E+00
  0.00000000E+00  0.00000000E+00  0.00000000E+00
  0.00000000E+00  0.00000000E+00  0.00000000E+00
  0.00000000E+00  0.00000000E+00  0.00000000E+00
