K  Mn O                                 
    1.000000000000000     
     0.0000304589476222    0.0000037003319669   -5.6834032842678006
    -0.0216419332662880   -9.6860943192516817   -0.0000119956690902
    -9.7810668616705936    0.0137465427830428   -0.0000141695803661
   K    Mn   O 
     1    16    32
Direct
     0.9999998965219496    0.4988073987624122    0.4957983943011346
     0.5000073504222593    0.1682447084224401    0.3452821287273707
     0.0000320619110602    0.1666614062455930    0.3431406331079154
     0.4999999320136340    0.3472621318098369    0.8301944992684160
     0.0000000654019203    0.3468042131193639    0.8310151900731821
     0.9999978872495837    0.6526929067964699    0.1622635571990728
     0.4999982561439626    0.6520475153174421    0.1627511978196587
     0.9999985633946723    0.8318012697082029    0.6485541811992753
     0.4999987184654099    0.8312438644950573    0.6473383286794503
     0.7498450111539030    0.6686965649976696    0.8456937004081608
     0.2501529961193044    0.6686964441483638    0.8456940139639478
     0.7498959110361511    0.8470798075129738    0.3301489080467199
     0.2501020620417062    0.8470775344660429    0.3301488052538339
     0.7499586473666920    0.1522619699951577    0.6628413228118640
     0.2500378144683189    0.1522620600466780    0.6628424242257723
     0.7498214090786409    0.3310515462647836    0.1471206003268889
     0.2501790506937860    0.3310521347640702    0.1471174453622466
     0.7498638159742684    0.9576591397427388    0.6566936663432551
     0.2501293543802519    0.9576592014486452    0.6566942709249654
     0.7499107045444121    0.6643641717331441    0.0379374641624012
     0.2500817928800068    0.6643644927455988    0.0379376914388110
     0.7497381421030987    0.3341881150855386    0.9548812341218239
     0.2502606577078249    0.3341876354041029    0.9548803020920277
     0.7493854442101677    0.0412594176790153    0.3352218382500138
     0.2506376708899948    0.0412555216640074    0.3352185925269291
     0.9999986979693545    0.4576637850136686    0.1607354875094218
     0.4999987915608206    0.4575713771761633    0.1586027047309020
     0.0000030235359081    0.1681734752692680    0.5369036133884436
     0.4999972158362716    0.1662461151994740    0.5375889224052859
     0.4999968135545834    0.8321054260562114    0.4550650330397353
     0.9999965638138218    0.8298439935515072    0.4554498713298155
     0.4999968517795344    0.5417895611724249    0.8343178837834005
     0.9999969619580709    0.5416424129768317    0.8321241507390421
     0.4999969634030623    0.7979992727652433    0.8395588870909835
     0.9999962186249369    0.7981659132280103    0.8399667866269916
     0.9999961378415597    0.8447679471576037    0.2016168385683312
     0.4999956107849726    0.8443962008697208    0.2016238250985128
     0.0000045185250092    0.2010119471806994    0.1520669586862794
     0.4999985010393755    0.2014695139350651    0.1533290445470206
     0.4999998244402880    0.1546289874913531    0.7912024455231879
     0.9999976325006494    0.1543038684257564    0.7912103397577676
     0.7513045967802349    0.2986123909018101    0.3404737359804090
     0.2487131372210570    0.2986186958468508    0.3404749194054703
     0.7506973328050067    0.3461503049708977    0.6999484478103908
     0.2492980273785426    0.3461506224428451    0.6999490151585422
     0.7506821968265884    0.6999591400216083    0.6522283999921946
     0.2493083701208128    0.6999595223137712    0.6522289950363991
     0.7506494655739765    0.6528737087343944    0.2930092643758694
     0.2493443299525932    0.6528736449234721    0.2930100387804789
 
  0.00000000E+00  0.00000000E+00 -0.00000000E+00
  0.00000000E+00  0.00000000E+00 -0.00000000E+00
  0.00000000E+00  0.00000000E+00 -0.00000000E+00
  0.00000000E+00  0.00000000E+00 -0.00000000E+00
  0.00000000E+00  0.00000000E+00 -0.00000000E+00
  0.00000000E+00  0.00000000E+00 -0.00000000E+00
  0.00000000E+00  0.00000000E+00 -0.00000000E+00
  0.00000000E+00  0.00000000E+00 -0.00000000E+00
  0.00000000E+00  0.00000000E+00 -0.00000000E+00
  0.00000000E+00  0.00000000E+00 -0.00000000E+00
  0.00000000E+00  0.00000000E+00 -0.00000000E+00
  0.00000000E+00  0.00000000E+00 -0.00000000E+00
  0.00000000E+00  0.00000000E+00 -0.00000000E+00
  0.00000000E+00  0.00000000E+00 -0.00000000E+00
  0.00000000E+00  0.00000000E+00 -0.00000000E+00
  0.00000000E+00  0.00000000E+00 -0.00000000E+00
  0.00000000E+00  0.00000000E+00 -0.00000000E+00
  0.00000000E+00  0.00000000E+00 -0.00000000E+00
  0.00000000E+00  0.00000000E+00 -0.00000000E+00
  0.00000000E+00  0.00000000E+00 -0.00000000E+00
  0.00000000E+00  0.00000000E+00 -0.00000000E+00
  0.00000000E+00  0.00000000E+00 -0.00000000E+00
  0.00000000E+00  0.00000000E+00 -0.00000000E+00
  0.00000000E+00  0.00000000E+00 -0.00000000E+00
  0.00000000E+00  0.00000000E+00 -0.00000000E+00
  0.00000000E+00  0.00000000E+00 -0.00000000E+00
  0.00000000E+00  0.00000000E+00 -0.00000000E+00
  0.00000000E+00  0.00000000E+00 -0.00000000E+00
  0.00000000E+00  0.00000000E+00 -0.00000000E+00
  0.00000000E+00  0.00000000E+00 -0.00000000E+00
  0.00000000E+00  0.00000000E+00 -0.00000000E+00
  0.00000000E+00  0.00000000E+00 -0.00000000E+00
  0.00000000E+00  0.00000000E+00 -0.00000000E+00
  0.00000000E+00  0.00000000E+00 -0.00000000E+00
  0.00000000E+00  0.00000000E+00 -0.00000000E+00
  0.00000000E+00  0.00000000E+00 -0.00000000E+00
  0.00000000E+00  0.00000000E+00 -0.00000000E+00
  0.00000000E+00  0.00000000E+00 -0.00000000E+00
  0.00000000E+00  0.00000000E+00 -0.00000000E+00
  0.00000000E+00  0.00000000E+00 -0.00000000E+00
  0.00000000E+00  0.00000000E+00 -0.00000000E+00
  0.00000000E+00  0.00000000E+00 -0.00000000E+00
  0.00000000E+00  0.00000000E+00 -0.00000000E+00
  0.00000000E+00  0.00000000E+00 -0.00000000E+00
  0.00000000E+00  0.00000000E+00 -0.00000000E+00
  0.00000000E+00  0.00000000E+00 -0.00000000E+00
  0.00000000E+00  0.00000000E+00 -0.00000000E+00
  0.00000000E+00  0.00000000E+00 -0.00000000E+00
  0.00000000E+00  0.00000000E+00 -0.00000000E+00
