K  Mn O                                 
    1.000000000000000     
     4.6481806790764164   -0.0378781259119118    0.0208523843465496
     2.2234645813495439    4.8113795644384156   -0.0076704937464860
     0.7654743961564889    0.0595040329686127    6.9703758229024597
   K    Mn   O 
     1     4     8
Direct
     0.8435827540352472    0.4299095632382817    0.4319963905865838
     0.0377243494920112    0.8651305691752830    0.8732642692152085
     0.5095887626869512    0.9995111575396149    0.6723888530554319
     0.7566286253486141    0.4034553308907576    0.9681223097710302
     0.4649586418388118    0.0739467368799109    0.1631856342849114
     0.0869197268584675    0.0884905551723262    0.1008622485982026
     0.4911474731203704    0.9887242528215913    0.4079255622901342
     0.4683185739218282    0.4139775454142568    0.1776436256325477
     0.0750775197053874    0.1897878588333606    0.7515454195953265
     0.9406716485065471    0.7813058610632867    0.6520762305425772
     0.6056525501497163    0.1276953745797235    0.9027806414462444
     0.8675988476495237    0.6671471973717981    0.0520323341362859
     0.4655935266865128    0.6628199970198005    0.8147304808455197
 
  0.00000000E+00  0.00000000E+00  0.00000000E+00
  0.00000000E+00  0.00000000E+00  0.00000000E+00
  0.00000000E+00  0.00000000E+00  0.00000000E+00
  0.00000000E+00  0.00000000E+00  0.00000000E+00
  0.00000000E+00  0.00000000E+00  0.00000000E+00
  0.00000000E+00  0.00000000E+00  0.00000000E+00
  0.00000000E+00  0.00000000E+00  0.00000000E+00
  0.00000000E+00  0.00000000E+00  0.00000000E+00
  0.00000000E+00  0.00000000E+00  0.00000000E+00
  0.00000000E+00  0.00000000E+00  0.00000000E+00
  0.00000000E+00  0.00000000E+00  0.00000000E+00
  0.00000000E+00  0.00000000E+00  0.00000000E+00
  0.00000000E+00  0.00000000E+00  0.00000000E+00
