Mn O  K                                 
    1.000000000000000     
     4.2858646606601791   -0.5172763402934815    0.0095749689333895
    -0.5493732905109578    6.0093892887589710   -0.0099799258722519
     0.0101473661310954   -0.0021887470767341    2.9020566996132340
   K    Mn   O 
     1     2     4
Direct
     0.6863208512710570    0.2052438956398630    0.9792725316116050
     0.0229219732306137    0.8380114393968311    0.5028274274153571
     0.4112330149867230    0.5958831305744576    0.9982757344090366
     0.1161398442905973    0.0230811086960384    0.0041738236459552
     0.9380751901118790    0.6197274861350383    0.0022346984017121
     0.5162279929092184    0.8171914143784050    0.4975215671970589
     0.3337418085643351    0.4045813038365235    0.4957107713871000
 
  0.00000000E+00  0.00000000E+00  0.00000000E+00
  0.00000000E+00  0.00000000E+00  0.00000000E+00
  0.00000000E+00  0.00000000E+00  0.00000000E+00
  0.00000000E+00  0.00000000E+00  0.00000000E+00
  0.00000000E+00  0.00000000E+00  0.00000000E+00
  0.00000000E+00  0.00000000E+00  0.00000000E+00
  0.00000000E+00  0.00000000E+00  0.00000000E+00
