K  Mn O                                 
    1.000000000000000     
     2.8864751520778795    0.0000000925506589   -0.0000003920125246
     0.0000002116424114    6.3025420851343874   -0.0000000369681885
    -0.0000017591356561   -0.0000000970580282   12.8522366320531827
   K    Mn   O 
     4     4     8
Direct
     0.7499951495034862    0.5150074016734615    0.6366426643922118
     0.7499951769169382    0.9849925936125631    0.1366425919610976
     0.2499951297905575    0.4849923865689065    0.3633575071875911
     0.2499950928423469    0.0150079733260754    0.8633574410861209
     0.7500286814197370    0.0103327643046051    0.6016513211434464
     0.2500284614032266    0.9896663638150449    0.3983483864484182
     0.2500277652976932    0.5103331687166069    0.8983483988214567
     0.7500286822859086    0.4896673743913778    0.1016516434782174
     0.2499148517944263    0.8702369933632431    0.6696082754866804
     0.7499148080033664    0.1297625272415634    0.3303915606922412
     0.7499142419132729    0.3702377509018340    0.8303916343457939
     0.2499151315744251    0.6297629303975142    0.1696085927059539
     0.2500616645116400    0.1814819539561614    0.5443083482859963
     0.7500618943210582    0.8185172550842817    0.4556914615442740
     0.2500619925871576    0.3185176979137519    0.0443085302067012
     0.7500612758347593    0.6814828647330018    0.9556916422137987
 
  0.00000000E+00  0.00000000E+00  0.00000000E+00
  0.00000000E+00  0.00000000E+00  0.00000000E+00
  0.00000000E+00  0.00000000E+00  0.00000000E+00
  0.00000000E+00  0.00000000E+00  0.00000000E+00
  0.00000000E+00  0.00000000E+00  0.00000000E+00
  0.00000000E+00  0.00000000E+00  0.00000000E+00
  0.00000000E+00  0.00000000E+00  0.00000000E+00
  0.00000000E+00  0.00000000E+00  0.00000000E+00
  0.00000000E+00  0.00000000E+00  0.00000000E+00
  0.00000000E+00  0.00000000E+00  0.00000000E+00
  0.00000000E+00  0.00000000E+00  0.00000000E+00
  0.00000000E+00  0.00000000E+00  0.00000000E+00
  0.00000000E+00  0.00000000E+00  0.00000000E+00
  0.00000000E+00  0.00000000E+00  0.00000000E+00
  0.00000000E+00  0.00000000E+00  0.00000000E+00
  0.00000000E+00  0.00000000E+00  0.00000000E+00
