K Mn  O                                 
   1.00000000000000     
     5.6948554403578946    0.0015050485910655   -0.0000126496096844
     0.0017428353893194    9.4457209665659772    0.0595926683072947
     0.0006277616419579    0.2474466418041774   18.3326473607381715
   K    Mn   O 
     1    32    64
Direct
  0.3772162796261457  0.5093356846603920  0.2534697874942596
  0.1185263160741745  0.2307207389147337  0.1780837305321722
  0.3748895763325550  0.2163647931077858  0.3212577382349621
  0.3749330209125210  0.0050754140752980  0.0578105899057750
  0.1250637418000126  0.4956384604371842  0.4288268805394975
  0.1251623755296584  0.2733924381977819  0.6847912644641615
  0.3750541987594884  0.2362477386097613  0.8195658433336503
  0.3750615832931453  0.0229651031333880  0.5760744631493943
  0.1248666018392400  0.4770346146697792  0.9372429795220855
  0.1229202254122269  0.7803039502182044  0.1806770059281572
  0.3752041721817047  0.7764361702191248  0.3214328160172579
  0.3751624385549791  0.5099209739724380  0.0720432128782472
  0.1244388414774922  0.9960646492292718  0.4428063592226231
  0.1253838068534942  0.7585759720029230  0.6824873897047526
  0.3750662550449168  0.7212153980717934  0.8172508294444479
  0.3760605359761875  0.5189308873220622  0.5648914141130553
  0.1242020906911457  0.9730667611936183  0.9253315844269491
  0.6292839679819460  0.2307223900793278  0.1779022841915703
  0.8747725305337223  0.2290400869609669  0.3189896497832513
  0.8750020013503949  0.0050121731311918  0.0574058542110914
  0.6251116935630752  0.4956741545196860  0.4288368283268781
  0.6251134463307413  0.2733882708594798  0.6847921446228001
  0.8750316219129721  0.2362258305054208  0.8195884575039332
  0.8750236194478253  0.0230310867956129  0.5761227302769975
  0.6252514397824182  0.4770823802118361  0.9372302955509708
  0.6286001140370928  0.7804831139736739  0.1805356359970254
  0.8752195393432415  0.7719187378921233  0.3215468788190849
  0.8752068507468126  0.5100215033919487  0.0733822321664576
  0.6256062152664791  0.9960556415376682  0.4428096743199903
  0.6253002683104244  0.7585741690836174  0.6824884223711039
  0.8750885809190337  0.7212267728688467  0.8172336030402169
  0.8760764717350870  0.5189007357675881  0.5649209855572734
  0.6236970661705572  0.9728523408987028  0.9254024458960459
  0.1245886902582477  0.0944421750660425  0.0062626213824817
  0.3739168206205363  0.2900756514110253  0.2269334053169735
  0.1143775219931606  0.1246242638920649  0.2726008485067353
  0.3755824591548879  0.4046267049809621  0.4800298051318056
  0.1299356796084843  0.3401182163898129  0.3552620040869097
  0.1280390166458792  0.4091967793309641  0.1190459290058769
  0.3749984045993374  0.0973623051776332  0.4008835810229764
  0.3741507552243712  0.1443534933972712  0.1282991257742807
  0.1247398700282680  0.1127353732804968  0.5250233720161009
  0.3751166176179631  0.3606740720445661  0.7361661591015184
  0.1251785652948491  0.1521556182672650  0.7674091091010962
  0.3752247417540492  0.3901991919383220  0.9903742187670075
  0.1250433213582414  0.3267358294788775  0.8680514914105818
  0.1257907264684921  0.4208703630541490  0.6107313365882244
  0.3745066796630006  0.0712923824756131  0.8806337583941722
  0.3751790195382415  0.1750205024898878  0.6420173930038782
  0.1241263074273403  0.5972447428192550  0.0199016184328074
  0.3752899104111732  0.8763670666522895  0.2289932342549636
  0.1146587146084206  0.6877371010679857  0.2724893476276135
  0.3751136331900108  0.9045433954404725  0.4933159847621886
  0.1263611435602774  0.8625694044175978  0.3682374138611918
  0.1245469794655142  0.9073684200664791  0.1022144424019467
  0.3753998897030337  0.6023283166008353  0.3856564141502404
  0.3755711849372803  0.6709312879006371  0.1411276686940150
  0.1252065800863590  0.6089072920294081  0.5128611839519150
  0.3752537836295656  0.8429575451403951  0.7345316200760640
  0.1252951501095621  0.6342516941676594  0.7656804277438901
  0.3744700792637471  0.8843442078565508  0.9768888505931739
  0.1248388681287801  0.8193692345430572  0.8601225184258048
  0.1250962654083150  0.9228003603613335  0.6201112495714918
  0.3750145959568459  0.5728545145241930  0.8902492760538803
  0.3754984245704732  0.6675804596152195  0.6345577487063342
  0.6247971597781699  0.0943727129357996  0.0062587528746712
  0.8741844492005902  0.3267919354431186  0.2278998413157547
  0.6346226200322279  0.1247258664095004  0.2725854792810762
  0.8756390315922699  0.4040547535279077  0.4797364756395624
  0.6196885044302916  0.3400926992777655  0.3552811230304982
  0.6219074451356694  0.4091061905630455  0.1190059591298073
  0.8749187131747711  0.0990492593746685  0.3993646700822302
  0.8742256002073754  0.1461011400008115  0.1290797339960510
  0.6252354846395176  0.1127441922672412  0.5250378802207668
  0.8751205892000465  0.3606559446805633  0.7361540280336598
  0.6251550296044134  0.1521646495501942  0.7674003189540586
  0.8751838320523478  0.3905226465697726  0.9909914510330157
  0.6251129925303478  0.3267474122951935  0.8680405606174141
  0.6257583382941623  0.4208796509211001  0.6107334848751840
  0.8743487927006587  0.0712440634244842  0.8806492588501266
  0.8751875203264232  0.1748543245356042  0.6420300647126855
  0.6259376549029017  0.5972654354545832  0.0198892647282370
  0.8755083326364950  0.8791118538525077  0.2278557671335381
  0.6364514484731304  0.6882650380073391  0.2724702971941895
  0.8751452272439328  0.9046215809959989  0.4929004648888216
  0.6238938011291804  0.8625522518691375  0.3682600596885005
  0.6256361508951563  0.9074293440498961  0.1021831943489672
  0.8752719006854538  0.5997385834686361  0.3852838188242576
  0.8755008820016497  0.6672947956843348  0.1430337216839083
  0.6259701150314825  0.6088990643999899  0.5128637628029091
  0.8752488422129240  0.8428875058490526  0.7345263548838524
  0.6251378862411959  0.6342440946514954  0.7656791078095595
  0.8746604216220465  0.8844857940316777  0.9771961430579231
  0.6249924884969508  0.8193147311514556  0.8601396567705316
  0.6252227266135020  0.9228079224182507  0.6201157917561018
  0.8750695030562713  0.5725909761617886  0.8901356766089747
  0.8754991655479979  0.6674092647361177  0.6345798224404797
 
  0.00000000E+00  0.00000000E+00  0.00000000E+00
  0.00000000E+00  0.00000000E+00  0.00000000E+00
  0.00000000E+00  0.00000000E+00  0.00000000E+00
  0.00000000E+00  0.00000000E+00  0.00000000E+00
  0.00000000E+00  0.00000000E+00  0.00000000E+00
  0.00000000E+00  0.00000000E+00  0.00000000E+00
  0.00000000E+00  0.00000000E+00  0.00000000E+00
  0.00000000E+00  0.00000000E+00  0.00000000E+00
  0.00000000E+00  0.00000000E+00  0.00000000E+00
  0.00000000E+00  0.00000000E+00  0.00000000E+00
  0.00000000E+00  0.00000000E+00  0.00000000E+00
  0.00000000E+00  0.00000000E+00  0.00000000E+00
  0.00000000E+00  0.00000000E+00  0.00000000E+00
  0.00000000E+00  0.00000000E+00  0.00000000E+00
  0.00000000E+00  0.00000000E+00  0.00000000E+00
  0.00000000E+00  0.00000000E+00  0.00000000E+00
  0.00000000E+00  0.00000000E+00  0.00000000E+00
  0.00000000E+00  0.00000000E+00  0.00000000E+00
  0.00000000E+00  0.00000000E+00  0.00000000E+00
  0.00000000E+00  0.00000000E+00  0.00000000E+00
  0.00000000E+00  0.00000000E+00  0.00000000E+00
  0.00000000E+00  0.00000000E+00  0.00000000E+00
  0.00000000E+00  0.00000000E+00  0.00000000E+00
  0.00000000E+00  0.00000000E+00  0.00000000E+00
  0.00000000E+00  0.00000000E+00  0.00000000E+00
  0.00000000E+00  0.00000000E+00  0.00000000E+00
  0.00000000E+00  0.00000000E+00  0.00000000E+00
  0.00000000E+00  0.00000000E+00  0.00000000E+00
  0.00000000E+00  0.00000000E+00  0.00000000E+00
  0.00000000E+00  0.00000000E+00  0.00000000E+00
  0.00000000E+00  0.00000000E+00  0.00000000E+00
  0.00000000E+00  0.00000000E+00  0.00000000E+00
  0.00000000E+00  0.00000000E+00  0.00000000E+00
  0.00000000E+00  0.00000000E+00  0.00000000E+00
  0.00000000E+00  0.00000000E+00  0.00000000E+00
  0.00000000E+00  0.00000000E+00  0.00000000E+00
  0.00000000E+00  0.00000000E+00  0.00000000E+00
  0.00000000E+00  0.00000000E+00  0.00000000E+00
  0.00000000E+00  0.00000000E+00  0.00000000E+00
  0.00000000E+00  0.00000000E+00  0.00000000E+00
  0.00000000E+00  0.00000000E+00  0.00000000E+00
  0.00000000E+00  0.00000000E+00  0.00000000E+00
  0.00000000E+00  0.00000000E+00  0.00000000E+00
  0.00000000E+00  0.00000000E+00  0.00000000E+00
  0.00000000E+00  0.00000000E+00  0.00000000E+00
  0.00000000E+00  0.00000000E+00  0.00000000E+00
  0.00000000E+00  0.00000000E+00  0.00000000E+00
  0.00000000E+00  0.00000000E+00  0.00000000E+00
  0.00000000E+00  0.00000000E+00  0.00000000E+00
  0.00000000E+00  0.00000000E+00  0.00000000E+00
  0.00000000E+00  0.00000000E+00  0.00000000E+00
  0.00000000E+00  0.00000000E+00  0.00000000E+00
  0.00000000E+00  0.00000000E+00  0.00000000E+00
  0.00000000E+00  0.00000000E+00  0.00000000E+00
  0.00000000E+00  0.00000000E+00  0.00000000E+00
  0.00000000E+00  0.00000000E+00  0.00000000E+00
  0.00000000E+00  0.00000000E+00  0.00000000E+00
  0.00000000E+00  0.00000000E+00  0.00000000E+00
  0.00000000E+00  0.00000000E+00  0.00000000E+00
  0.00000000E+00  0.00000000E+00  0.00000000E+00
  0.00000000E+00  0.00000000E+00  0.00000000E+00
  0.00000000E+00  0.00000000E+00  0.00000000E+00
  0.00000000E+00  0.00000000E+00  0.00000000E+00
  0.00000000E+00  0.00000000E+00  0.00000000E+00
  0.00000000E+00  0.00000000E+00  0.00000000E+00
  0.00000000E+00  0.00000000E+00  0.00000000E+00
  0.00000000E+00  0.00000000E+00  0.00000000E+00
  0.00000000E+00  0.00000000E+00  0.00000000E+00
  0.00000000E+00  0.00000000E+00  0.00000000E+00
  0.00000000E+00  0.00000000E+00  0.00000000E+00
  0.00000000E+00  0.00000000E+00  0.00000000E+00
  0.00000000E+00  0.00000000E+00  0.00000000E+00
  0.00000000E+00  0.00000000E+00  0.00000000E+00
  0.00000000E+00  0.00000000E+00  0.00000000E+00
  0.00000000E+00  0.00000000E+00  0.00000000E+00
  0.00000000E+00  0.00000000E+00  0.00000000E+00
  0.00000000E+00  0.00000000E+00  0.00000000E+00
  0.00000000E+00  0.00000000E+00  0.00000000E+00
  0.00000000E+00  0.00000000E+00  0.00000000E+00
  0.00000000E+00  0.00000000E+00  0.00000000E+00
  0.00000000E+00  0.00000000E+00  0.00000000E+00
  0.00000000E+00  0.00000000E+00  0.00000000E+00
  0.00000000E+00  0.00000000E+00  0.00000000E+00
  0.00000000E+00  0.00000000E+00  0.00000000E+00
  0.00000000E+00  0.00000000E+00  0.00000000E+00
  0.00000000E+00  0.00000000E+00  0.00000000E+00
  0.00000000E+00  0.00000000E+00  0.00000000E+00
  0.00000000E+00  0.00000000E+00  0.00000000E+00
  0.00000000E+00  0.00000000E+00  0.00000000E+00
  0.00000000E+00  0.00000000E+00  0.00000000E+00
  0.00000000E+00  0.00000000E+00  0.00000000E+00
  0.00000000E+00  0.00000000E+00  0.00000000E+00
  0.00000000E+00  0.00000000E+00  0.00000000E+00
  0.00000000E+00  0.00000000E+00  0.00000000E+00
  0.00000000E+00  0.00000000E+00  0.00000000E+00
  0.00000000E+00  0.00000000E+00  0.00000000E+00
  0.00000000E+00  0.00000000E+00  0.00000000E+00
