Mn O  K                                 
    1.000000000000000     
     0.0053294695247296   13.7492745084433245   -0.4276261507811627
     2.8517619012279591   -0.0015867743742839   -0.0001259510015112
    -0.0040155442049304    0.1366711595035849   -9.7790329461284617
   K    Mn   O 
     1    12    24
Direct
     0.2827727855353144    0.0009216914947515    0.5005952308293171
     0.3649407347955493    0.0007280730992958    0.7924336305619181
     0.3256382075698659    0.0022504889470104    0.1966975187130311
     0.1781668082143515    0.5016535232868879    0.7915568381731068
     0.1402663883237951    0.5006649154381826    0.2080872180719731
     0.5166388271082347    0.5005159879269455    0.0187293555735968
     0.5279599249013009    0.4996944374806802    0.5481110631558370
     0.8567969891469747    0.5000878365312871    0.7288286846026535
     0.8319485780618766    0.5001185900893547    0.2213328868152901
     0.6788370619294866    0.0000674059749147    0.7814781870449179
     0.6528759639134347    0.9999935252426974    0.2705827633811062
     0.9912149463175324    0.0011981096560640    0.9801971349300415
     0.9841939770066489    0.0001958439138473    0.4547805157458789
     0.0643330558954351    0.5010568894893069    0.9064158673796091
     0.0552534718477847    0.5001459754595764    0.3734211024815479
     0.4550157555497166    0.9996327340941271    0.6291215144735366
     0.4439287289918691    0.0004769876674466    0.0921090204984614
     0.1364261441287864    0.0012671378069684    0.6897543887185085
     0.0753790863695698    0.0007602331197654    0.1285115652870934
     0.4282792513162117    0.5007208647990825    0.8734691328633963
     0.3676052215118832    0.5017321487020908    0.2999216803067932
     0.2437522751015161    0.0013306371419437    0.8884225626914480
     0.2017135188995085    0.0012594331359925    0.2925666789569176
     0.3043457724151418    0.5008558316583011    0.7025655579948387
     0.2597684257239168    0.5011587328892585    0.1038784344012715
     0.5879913079423325    0.0003831004447185    0.9360223660526880
     0.5650615234218637    0.9996198424221556    0.4296186068674251
     0.9434992321434895    0.5000500952183586    0.5710565306889694
     0.9194290223388197    0.5007516884579095    0.0629790288068066
     0.6189538384008347    0.4996596887162127    0.6896359931951100
     0.5918231116593767    0.4997645464450456    0.1807916565965530
     0.9173907876408041    0.0002770650279084    0.8180667619117122
     0.8920626833647939    0.0002230123741764    0.3137492885166745
     0.7487854283260084    0.5001085678864364    0.8581724326921180
     0.7229941003897964    0.5000579907055771    0.3487916769851002
     0.7860923535517170    0.9998170901303550    0.6519423681142741
     0.7618869616611533    0.9998163938052631    0.1439634869350244
 
  0.00000000E+00  0.00000000E+00 -0.00000000E+00
  0.00000000E+00  0.00000000E+00 -0.00000000E+00
  0.00000000E+00  0.00000000E+00 -0.00000000E+00
  0.00000000E+00  0.00000000E+00 -0.00000000E+00
  0.00000000E+00  0.00000000E+00 -0.00000000E+00
  0.00000000E+00  0.00000000E+00 -0.00000000E+00
  0.00000000E+00  0.00000000E+00 -0.00000000E+00
  0.00000000E+00  0.00000000E+00 -0.00000000E+00
  0.00000000E+00  0.00000000E+00 -0.00000000E+00
  0.00000000E+00  0.00000000E+00 -0.00000000E+00
  0.00000000E+00  0.00000000E+00 -0.00000000E+00
  0.00000000E+00  0.00000000E+00 -0.00000000E+00
  0.00000000E+00  0.00000000E+00 -0.00000000E+00
  0.00000000E+00  0.00000000E+00 -0.00000000E+00
  0.00000000E+00  0.00000000E+00 -0.00000000E+00
  0.00000000E+00  0.00000000E+00 -0.00000000E+00
  0.00000000E+00  0.00000000E+00 -0.00000000E+00
  0.00000000E+00  0.00000000E+00 -0.00000000E+00
  0.00000000E+00  0.00000000E+00 -0.00000000E+00
  0.00000000E+00  0.00000000E+00 -0.00000000E+00
  0.00000000E+00  0.00000000E+00 -0.00000000E+00
  0.00000000E+00  0.00000000E+00 -0.00000000E+00
  0.00000000E+00  0.00000000E+00 -0.00000000E+00
  0.00000000E+00  0.00000000E+00 -0.00000000E+00
  0.00000000E+00  0.00000000E+00 -0.00000000E+00
  0.00000000E+00  0.00000000E+00 -0.00000000E+00
  0.00000000E+00  0.00000000E+00 -0.00000000E+00
  0.00000000E+00  0.00000000E+00 -0.00000000E+00
  0.00000000E+00  0.00000000E+00 -0.00000000E+00
  0.00000000E+00  0.00000000E+00 -0.00000000E+00
  0.00000000E+00  0.00000000E+00 -0.00000000E+00
  0.00000000E+00  0.00000000E+00 -0.00000000E+00
  0.00000000E+00  0.00000000E+00 -0.00000000E+00
  0.00000000E+00  0.00000000E+00 -0.00000000E+00
  0.00000000E+00  0.00000000E+00 -0.00000000E+00
  0.00000000E+00  0.00000000E+00 -0.00000000E+00
  0.00000000E+00  0.00000000E+00 -0.00000000E+00
