K  Mn O                                 
    1.000000000000000     
     5.6724120557931084    0.0013038444242244    0.0048916429510827
    -1.4227158907512825   -6.8926886933165319   -0.0102339586004454
    -1.4139942583609559    0.0062304325215148   -6.9017549965568827
   K    Mn   O 
     1     8    16
Direct
     0.9999966760130984    0.9999976693964164    0.9999979725835366
     0.5752955720597235    0.8192580137695493    0.4838838418300775
     0.0756523256750455    0.8184057489987514    0.4864437549776468
     0.9243254306902082    0.1815946303414187    0.5135535839441100
     0.4246803727061187    0.1807324292479505    0.5161198351653997
     0.1675778158418870    0.4867704392143534    0.1821364249349772
     0.6665947103208375    0.4835069200765510    0.1799433627070347
     0.3334347385327115    0.5165017550331655    0.8200481703218339
     0.8324510702536875    0.5132244676653631    0.8178634871962799
     0.6734845658258887    0.0467481431623958    0.6426032616483099
     0.1716885826431132    0.0468973608882713    0.6435201546019400
     0.8283189970822942    0.9530930879400524    0.3564956498577321
     0.3265208657171268    0.9532395507495326    0.3574143149992569
     0.6502987732857067    0.6424672665878045    0.9529906366996558
     0.1479119547055148    0.6437694886528545    0.9527793322153592
     0.8520571046155011    0.3562356871339779    0.0471943366276479
     0.3496752709154376    0.3575385785741956    0.0469849508444123
     0.9787091101204959    0.6250692570611744    0.2928795155613896
     0.4805060506009541    0.6227928159013604    0.2946338547844402
     0.5194912140743232    0.3772169399405534    0.7053703466366213
     0.0212936178308852    0.3749383510303977    0.7071224363671491
     0.6680445936255063    0.2954442256941755    0.3778424062025597
     0.1679421428674725    0.2930222692757178    0.3750456998025071
     0.8320766700951496    0.7069785870997369    0.6249631550257457
     0.3319717739013126    0.7045563165642794    0.6221695144643766
 
  0.00000000E+00  0.00000000E+00  0.00000000E+00
  0.00000000E+00  0.00000000E+00  0.00000000E+00
  0.00000000E+00  0.00000000E+00  0.00000000E+00
  0.00000000E+00  0.00000000E+00  0.00000000E+00
  0.00000000E+00  0.00000000E+00  0.00000000E+00
  0.00000000E+00  0.00000000E+00  0.00000000E+00
  0.00000000E+00  0.00000000E+00  0.00000000E+00
  0.00000000E+00  0.00000000E+00  0.00000000E+00
  0.00000000E+00  0.00000000E+00  0.00000000E+00
  0.00000000E+00  0.00000000E+00  0.00000000E+00
  0.00000000E+00  0.00000000E+00  0.00000000E+00
  0.00000000E+00  0.00000000E+00  0.00000000E+00
  0.00000000E+00  0.00000000E+00  0.00000000E+00
  0.00000000E+00  0.00000000E+00  0.00000000E+00
  0.00000000E+00  0.00000000E+00  0.00000000E+00
  0.00000000E+00  0.00000000E+00  0.00000000E+00
  0.00000000E+00  0.00000000E+00  0.00000000E+00
  0.00000000E+00  0.00000000E+00  0.00000000E+00
  0.00000000E+00  0.00000000E+00  0.00000000E+00
  0.00000000E+00  0.00000000E+00  0.00000000E+00
  0.00000000E+00  0.00000000E+00  0.00000000E+00
  0.00000000E+00  0.00000000E+00  0.00000000E+00
  0.00000000E+00  0.00000000E+00  0.00000000E+00
  0.00000000E+00  0.00000000E+00  0.00000000E+00
  0.00000000E+00  0.00000000E+00  0.00000000E+00
