 K Mn  O                                
   1.00000000000000     
    13.3218881625112733   -0.0011430321615033    0.0005907723822663
    -0.0021264665623253   13.3325249606732790   -0.0014773970858520
     0.0005203349279767   -0.0011392601908315    8.5535023475701859
   K    Mn   O 
     1    54   108
Direct
  0.3328050445338531  0.5012494974419512  0.4165624085707867
  0.9981621892758248  0.0015584911548206  0.1663751627204470
  0.1665627545442268  0.1666630006606142  0.9996365702647898
  0.9975687674646035  0.0006386501845753  0.4998316907027160
  0.1645665277234779  0.1644352722361141  0.3330286688297030
  0.9983202690680145  0.0016442313213047  0.8335791089650946
  0.1648947113552682  0.1643695643209338  0.6670825596144118
  0.9962364915564607  0.3303227681096727  0.1638945706429422
  0.1667581737981065  0.4986458919023895  0.0002079579067590
  0.9963525078668287  0.3303983454683023  0.5026613446515723
  0.1466274331483518  0.4951510721546269  0.3307060811293218
  0.9977154524251286  0.3320051609227406  0.8348329280443300
  0.1603642950374615  0.4964671223227919  0.6662783769003784
  0.9976216620417092  0.6693294088628040  0.1657976396664838
  0.1663860567268666  0.8364851356336566  0.9986570226784396
  0.9976352439520008  0.6692011033233586  0.5004731622339198
  0.1635692894172976  0.8373599232324624  0.3303645981210036
  0.0008316224886123  0.6668688556438449  0.8340842816339569
  0.1637621105000069  0.8372686714318718  0.6699629145781453
  0.3341790607114435  0.9999341642188261  0.1659359143738723
  0.5005429966010608  0.1652545351059043  0.9981694265707596
  0.3340200028652042  0.9998168824917490  0.4998711538623509
  0.5027514202713868  0.1631622047599872  0.3309488939455527
  0.3341317206211459  0.9999317478758105  0.8329263093751534
  0.5025781479734978  0.1632041482830550  0.6684059777122356
  0.3367197239303076  0.3275488867316327  0.1661696203243715
  0.5000365291209581  0.5011789691199657  0.0012225882821109
  0.3372429009825990  0.3148640995561292  0.5016054491113067
  0.5188701949477610  0.5035123246017212  0.3326120227746421
  0.3346966233664855  0.3334760321552798  0.8329216589136725
  0.5062843387566401  0.5024477750941853  0.6673629142155513
  0.3298456481672843  0.6726066473594692  0.1653335060269223
  0.5008684206255767  0.8333776039985642  0.9991619517047533
  0.3279057537450275  0.6870003477530653  0.5007661849868545
  0.5017755976679155  0.8342373866934160  0.3329291211247402
  0.3327939638799415  0.6660760945465377  0.8326711125565854
  0.5017906569580367  0.8342702574373191  0.6670052834187770
  0.6669564336281165  0.9994953973292990  0.1663294938617212
  0.8314332917517750  0.1654056418622567  0.9996968138672406
  0.6673525921988938  0.9995883947762833  0.4997694344423259
  0.8320316203591668  0.1651012139396385  0.3334838515764942
  0.6669690959901531  0.9994705698107399  0.8334389219982137
  0.8315194492880350  0.1653538711846773  0.6672393603630234
  0.6685952885983898  0.3316971114603328  0.1659205633537861
  0.8341618176370931  0.5000843356315223  0.0006875640517783
  0.6687669803635268  0.3314255574470841  0.5006266281960755
  0.8340697831669448  0.5001100260862396  0.3339278810617845
  0.6668923460667175  0.3330974507201588  0.8337840418270444
  0.8342070014776048  0.5000379014987263  0.6678127276929007
  0.6706713040298852  0.6687855657099799  0.1647579364943969
  0.8337737681101314  0.8342958240029238  0.9996655117782481
  0.6705090602181031  0.6688921802228256  0.5029115813280978
  0.8331046607801932  0.8343737309254765  0.3334204082759994
  0.6690304328178248  0.6665225250707282  0.8352182882944775
  0.8338640556212196  0.8342929195499306  0.6671531413895201
  0.0632839830795750  0.0666304186308019  0.0001597984118888
  0.2681087983260115  0.2681252012660725  0.9971919990929864
  0.1011737244792097  0.2318783267285558  0.1668202020519891
  0.2310903364467339  0.1007433814660504  0.1661178796972178
  0.0628077096200883  0.0657678068876868  0.3334411048968940
  0.2685524964387281  0.2629900489345584  0.3321130220793371
  0.1004391973117726  0.2315717572591349  0.5008718477676146
  0.2309347363445909  0.1003739234251786  0.4998905765846267
  0.0629338705327674  0.0658463893461906  0.6663423745065199
  0.2704444277815081  0.2626281943631719  0.6703868056982415
  0.1010867216248980  0.2315370036112637  0.8326786921933872
  0.2306706082186759  0.1001634788161957  0.8335663824484206
  0.0646042078636522  0.3959638640264213  0.0002959817735548
  0.2675474433903742  0.6020772309113722  0.0007601507749040
  0.0954318159168800  0.5630187294917941  0.1625645229819866
  0.2314936724690539  0.4361746922843013  0.1740211636688256
  0.0554080632937464  0.3967637056142949  0.3306388401132626
  0.2475913448651070  0.6322824119091693  0.3258294583143051
  0.0960184786208252  0.5648064859437432  0.5003660163803432
  0.2023058261400193  0.4145141450684945  0.5062303372793627
  0.0564165620603868  0.4000035412303338  0.6716625036714345
  0.2690640225770804  0.6023614531131588  0.6583728250421480
  0.1013460584796060  0.5653319091022211  0.8358327162647746
  0.2313509418174579  0.4345410206288113  0.8318428377286589
  0.0654400198123058  0.7327971308011626  0.0008219742671352
  0.2682500735104403  0.9365640691385564  0.9985949993284087
  0.1001339246578853  0.9010407579398370  0.1655962915724906
  0.2342292923717406  0.7778359922624088  0.1613302573936714
  0.0647708554414632  0.7333763888064833  0.3325430787463323
  0.2680817087770985  0.9364229531319704  0.3326491241689194
  0.0994808587689432  0.9007124007812081  0.4995875824519423
  0.2307181182504463  0.7790850083077930  0.5024110673360440
  0.0654227939654862  0.7324237139958623  0.6666414706621203
  0.2681523555257426  0.9360481013519829  0.6673284986241950
  0.0999554469755429  0.9012795093902199  0.8337666337007497
  0.2300663668863324  0.7695494141954961  0.8331319191700148
  0.3998492947588725  0.0637351821051758  0.9985824806930295
  0.6013190501014316  0.2681526208647670  0.0006003263413156
  0.4326396470120094  0.2231528698738527  0.1619669734879922
  0.5667227883398664  0.1006815312764993  0.1653611914666444
  0.3999038346927166  0.0635244717044523  0.3328274080330513
  0.6015717288624284  0.2673795077838569  0.3326558122217250
  0.4354236131912488  0.2222642443229474  0.5022948899606846
  0.5672201801777093  0.1004683726538205  0.4993030532097264
  0.3998672789461100  0.0639250147116424  0.6669776833860670
  0.6014058734005537  0.2679293524932988  0.6665574474670773
  0.4368054330206948  0.2310786303143960  0.8325160098301412
  0.5669740093800307  0.1004973889585222  0.8332723536063352
  0.3992375731458083  0.3978522593486245  0.0012037459159936
  0.6027700974544318  0.6031496571677248  0.0009507218866977
  0.4352965041100855  0.5640146229772802  0.1744995668811947
  0.5709716139250310  0.4371305346705320  0.1631485522978500
  0.4184060762167178  0.3696242294241969  0.3271483101466961
  0.6119042044384496  0.6014230863482745  0.3311656694689459
  0.4656155407334093  0.5841981459421467  0.5068570507844857
  0.5707889553662570  0.4346458190752089  0.5015900868517016
  0.3974405900172454  0.3982933965533155  0.6590377947113659
  0.6110303856125312  0.5986514319546501  0.6718669279305365
  0.4358243824596723  0.5655395492036553  0.8322304248969509
  0.5658071446808522  0.4345166445383980  0.8368002337534746
  0.3992779856777007  0.7317668613359855  0.9966756303199097
  0.6023583710617393  0.9342520291558166  0.9999442818088374
  0.4360915572474952  0.8986974317848841  0.1658940150042545
  0.5660948223464513  0.7679309855105400  0.1667637078899926
  0.3984150249882751  0.7365161674001224  0.3318047566657847
  0.6025642622176279  0.9347752558212870  0.3332525559186413
  0.4359552898171460  0.8986774400718806  0.4999225130565958
  0.5666134595739721  0.7679500049563160  0.5006063918643144
  0.3964469845060026  0.7369792750219765  0.6698329285560426
  0.6025098453444410  0.9346975093840286  0.6664463256276666
  0.4366861971714102  0.8992278335527319  0.8333434273420545
  0.5662088671724408  0.7678791157034863  0.8325113375389569
  0.7317382129220390  0.0640749357510708  0.9998250176478225
  0.9325275782684487  0.2662962989210166  0.9999028576468836
  0.7673446072705747  0.2300017381749832  0.1668012764690029
  0.8969558117103970  0.1011752871008376  0.1664029270846778
  0.7318789425612635  0.0640662433683392  0.3330509946127426
  0.9328687919437868  0.2661133411712414  0.3337961565225471
  0.7674927992400701  0.2297639870664587  0.5001341718982918
  0.8969404447375336  0.1011227329708090  0.5002959628870467
  0.7318960025417265  0.0640779140929501  0.6668737354083256
  0.9327637645437792  0.2665160393302239  0.6676137572658087
  0.7667536862591624  0.2303201838570913  0.8334056047702439
  0.8970057256842323  0.1014214619331016  0.8335305193552458
  0.7336810060918436  0.3968952435927011  0.9998917401710002
  0.9339130617628913  0.6033842852925452  0.9997701076844815
  0.7699587476331999  0.5655894508216974  0.1664862003371679
  0.8983639792855355  0.4345337867351472  0.1663510023404740
  0.7333878467156230  0.3972324486434522  0.3334683332727839
  0.9339624641007859  0.6031078216966073  0.3333782329919837
  0.7703627949093150  0.5656405647796299  0.5009689930772367
  0.8980275806629681  0.4344319131447373  0.5007168617167989
  0.7333244938481119  0.3972381357434490  0.6675117231815683
  0.9344290639466910  0.6028266176917578  0.6675710444491713
  0.7701761569123308  0.5654317315774121  0.8350198148755615
  0.8980145683586858  0.4344626040838597  0.8349771652558182
  0.7339341888354421  0.7327624957669160  0.0000616038589029
  0.9341904987346253  0.9361131493001738  0.9998590935470956
  0.7682542928102367  0.8985113046717033  0.1665397082676761
  0.8987113345379256  0.7701038929883366  0.1666785627221366
  0.7336884923133710  0.7329680834638332  0.3342214915481748
  0.9338815148486753  0.9358062165213976  0.3329795359005069
  0.7683803255358147  0.8984832848844959  0.5002675040229593
  0.8987262465068777  0.7701692019197796  0.5001207617234732
  0.7336724761039188  0.7325215282972335  0.6680968166085152
  0.9340313061597881  0.9359154770469454  0.6670733117367184
  0.7684182071145228  0.8983718924305498  0.8334449030975867
  0.8996182583019537  0.7697367596884939  0.8333869855877999
 
  0.00000000E+00  0.00000000E+00  0.00000000E+00
  0.00000000E+00  0.00000000E+00  0.00000000E+00
  0.00000000E+00  0.00000000E+00  0.00000000E+00
  0.00000000E+00  0.00000000E+00  0.00000000E+00
  0.00000000E+00  0.00000000E+00  0.00000000E+00
  0.00000000E+00  0.00000000E+00  0.00000000E+00
  0.00000000E+00  0.00000000E+00  0.00000000E+00
  0.00000000E+00  0.00000000E+00  0.00000000E+00
  0.00000000E+00  0.00000000E+00  0.00000000E+00
  0.00000000E+00  0.00000000E+00  0.00000000E+00
  0.00000000E+00  0.00000000E+00  0.00000000E+00
  0.00000000E+00  0.00000000E+00  0.00000000E+00
  0.00000000E+00  0.00000000E+00  0.00000000E+00
  0.00000000E+00  0.00000000E+00  0.00000000E+00
  0.00000000E+00  0.00000000E+00  0.00000000E+00
  0.00000000E+00  0.00000000E+00  0.00000000E+00
  0.00000000E+00  0.00000000E+00  0.00000000E+00
  0.00000000E+00  0.00000000E+00  0.00000000E+00
  0.00000000E+00  0.00000000E+00  0.00000000E+00
  0.00000000E+00  0.00000000E+00  0.00000000E+00
  0.00000000E+00  0.00000000E+00  0.00000000E+00
  0.00000000E+00  0.00000000E+00  0.00000000E+00
  0.00000000E+00  0.00000000E+00  0.00000000E+00
  0.00000000E+00  0.00000000E+00  0.00000000E+00
  0.00000000E+00  0.00000000E+00  0.00000000E+00
  0.00000000E+00  0.00000000E+00  0.00000000E+00
  0.00000000E+00  0.00000000E+00  0.00000000E+00
  0.00000000E+00  0.00000000E+00  0.00000000E+00
  0.00000000E+00  0.00000000E+00  0.00000000E+00
  0.00000000E+00  0.00000000E+00  0.00000000E+00
  0.00000000E+00  0.00000000E+00  0.00000000E+00
  0.00000000E+00  0.00000000E+00  0.00000000E+00
  0.00000000E+00  0.00000000E+00  0.00000000E+00
  0.00000000E+00  0.00000000E+00  0.00000000E+00
  0.00000000E+00  0.00000000E+00  0.00000000E+00
  0.00000000E+00  0.00000000E+00  0.00000000E+00
  0.00000000E+00  0.00000000E+00  0.00000000E+00
  0.00000000E+00  0.00000000E+00  0.00000000E+00
  0.00000000E+00  0.00000000E+00  0.00000000E+00
  0.00000000E+00  0.00000000E+00  0.00000000E+00
  0.00000000E+00  0.00000000E+00  0.00000000E+00
  0.00000000E+00  0.00000000E+00  0.00000000E+00
  0.00000000E+00  0.00000000E+00  0.00000000E+00
  0.00000000E+00  0.00000000E+00  0.00000000E+00
  0.00000000E+00  0.00000000E+00  0.00000000E+00
  0.00000000E+00  0.00000000E+00  0.00000000E+00
  0.00000000E+00  0.00000000E+00  0.00000000E+00
  0.00000000E+00  0.00000000E+00  0.00000000E+00
  0.00000000E+00  0.00000000E+00  0.00000000E+00
  0.00000000E+00  0.00000000E+00  0.00000000E+00
  0.00000000E+00  0.00000000E+00  0.00000000E+00
  0.00000000E+00  0.00000000E+00  0.00000000E+00
  0.00000000E+00  0.00000000E+00  0.00000000E+00
  0.00000000E+00  0.00000000E+00  0.00000000E+00
  0.00000000E+00  0.00000000E+00  0.00000000E+00
  0.00000000E+00  0.00000000E+00  0.00000000E+00
  0.00000000E+00  0.00000000E+00  0.00000000E+00
  0.00000000E+00  0.00000000E+00  0.00000000E+00
  0.00000000E+00  0.00000000E+00  0.00000000E+00
  0.00000000E+00  0.00000000E+00  0.00000000E+00
  0.00000000E+00  0.00000000E+00  0.00000000E+00
  0.00000000E+00  0.00000000E+00  0.00000000E+00
  0.00000000E+00  0.00000000E+00  0.00000000E+00
  0.00000000E+00  0.00000000E+00  0.00000000E+00
  0.00000000E+00  0.00000000E+00  0.00000000E+00
  0.00000000E+00  0.00000000E+00  0.00000000E+00
  0.00000000E+00  0.00000000E+00  0.00000000E+00
  0.00000000E+00  0.00000000E+00  0.00000000E+00
  0.00000000E+00  0.00000000E+00  0.00000000E+00
  0.00000000E+00  0.00000000E+00  0.00000000E+00
  0.00000000E+00  0.00000000E+00  0.00000000E+00
  0.00000000E+00  0.00000000E+00  0.00000000E+00
  0.00000000E+00  0.00000000E+00  0.00000000E+00
  0.00000000E+00  0.00000000E+00  0.00000000E+00
  0.00000000E+00  0.00000000E+00  0.00000000E+00
  0.00000000E+00  0.00000000E+00  0.00000000E+00
  0.00000000E+00  0.00000000E+00  0.00000000E+00
  0.00000000E+00  0.00000000E+00  0.00000000E+00
  0.00000000E+00  0.00000000E+00  0.00000000E+00
  0.00000000E+00  0.00000000E+00  0.00000000E+00
  0.00000000E+00  0.00000000E+00  0.00000000E+00
  0.00000000E+00  0.00000000E+00  0.00000000E+00
  0.00000000E+00  0.00000000E+00  0.00000000E+00
  0.00000000E+00  0.00000000E+00  0.00000000E+00
  0.00000000E+00  0.00000000E+00  0.00000000E+00
  0.00000000E+00  0.00000000E+00  0.00000000E+00
  0.00000000E+00  0.00000000E+00  0.00000000E+00
  0.00000000E+00  0.00000000E+00  0.00000000E+00
  0.00000000E+00  0.00000000E+00  0.00000000E+00
  0.00000000E+00  0.00000000E+00  0.00000000E+00
  0.00000000E+00  0.00000000E+00  0.00000000E+00
  0.00000000E+00  0.00000000E+00  0.00000000E+00
  0.00000000E+00  0.00000000E+00  0.00000000E+00
  0.00000000E+00  0.00000000E+00  0.00000000E+00
  0.00000000E+00  0.00000000E+00  0.00000000E+00
  0.00000000E+00  0.00000000E+00  0.00000000E+00
  0.00000000E+00  0.00000000E+00  0.00000000E+00
  0.00000000E+00  0.00000000E+00  0.00000000E+00
  0.00000000E+00  0.00000000E+00  0.00000000E+00
  0.00000000E+00  0.00000000E+00  0.00000000E+00
  0.00000000E+00  0.00000000E+00  0.00000000E+00
  0.00000000E+00  0.00000000E+00  0.00000000E+00
  0.00000000E+00  0.00000000E+00  0.00000000E+00
  0.00000000E+00  0.00000000E+00  0.00000000E+00
  0.00000000E+00  0.00000000E+00  0.00000000E+00
  0.00000000E+00  0.00000000E+00  0.00000000E+00
  0.00000000E+00  0.00000000E+00  0.00000000E+00
  0.00000000E+00  0.00000000E+00  0.00000000E+00
  0.00000000E+00  0.00000000E+00  0.00000000E+00
  0.00000000E+00  0.00000000E+00  0.00000000E+00
  0.00000000E+00  0.00000000E+00  0.00000000E+00
  0.00000000E+00  0.00000000E+00  0.00000000E+00
  0.00000000E+00  0.00000000E+00  0.00000000E+00
  0.00000000E+00  0.00000000E+00  0.00000000E+00
  0.00000000E+00  0.00000000E+00  0.00000000E+00
  0.00000000E+00  0.00000000E+00  0.00000000E+00
  0.00000000E+00  0.00000000E+00  0.00000000E+00
  0.00000000E+00  0.00000000E+00  0.00000000E+00
  0.00000000E+00  0.00000000E+00  0.00000000E+00
  0.00000000E+00  0.00000000E+00  0.00000000E+00
  0.00000000E+00  0.00000000E+00  0.00000000E+00
  0.00000000E+00  0.00000000E+00  0.00000000E+00
  0.00000000E+00  0.00000000E+00  0.00000000E+00
  0.00000000E+00  0.00000000E+00  0.00000000E+00
  0.00000000E+00  0.00000000E+00  0.00000000E+00
  0.00000000E+00  0.00000000E+00  0.00000000E+00
  0.00000000E+00  0.00000000E+00  0.00000000E+00
  0.00000000E+00  0.00000000E+00  0.00000000E+00
  0.00000000E+00  0.00000000E+00  0.00000000E+00
  0.00000000E+00  0.00000000E+00  0.00000000E+00
  0.00000000E+00  0.00000000E+00  0.00000000E+00
  0.00000000E+00  0.00000000E+00  0.00000000E+00
  0.00000000E+00  0.00000000E+00  0.00000000E+00
  0.00000000E+00  0.00000000E+00  0.00000000E+00
  0.00000000E+00  0.00000000E+00  0.00000000E+00
  0.00000000E+00  0.00000000E+00  0.00000000E+00
  0.00000000E+00  0.00000000E+00  0.00000000E+00
  0.00000000E+00  0.00000000E+00  0.00000000E+00
  0.00000000E+00  0.00000000E+00  0.00000000E+00
  0.00000000E+00  0.00000000E+00  0.00000000E+00
  0.00000000E+00  0.00000000E+00  0.00000000E+00
  0.00000000E+00  0.00000000E+00  0.00000000E+00
  0.00000000E+00  0.00000000E+00  0.00000000E+00
  0.00000000E+00  0.00000000E+00  0.00000000E+00
  0.00000000E+00  0.00000000E+00  0.00000000E+00
  0.00000000E+00  0.00000000E+00  0.00000000E+00
  0.00000000E+00  0.00000000E+00  0.00000000E+00
  0.00000000E+00  0.00000000E+00  0.00000000E+00
  0.00000000E+00  0.00000000E+00  0.00000000E+00
  0.00000000E+00  0.00000000E+00  0.00000000E+00
  0.00000000E+00  0.00000000E+00  0.00000000E+00
  0.00000000E+00  0.00000000E+00  0.00000000E+00
  0.00000000E+00  0.00000000E+00  0.00000000E+00
  0.00000000E+00  0.00000000E+00  0.00000000E+00
  0.00000000E+00  0.00000000E+00  0.00000000E+00
  0.00000000E+00  0.00000000E+00  0.00000000E+00
  0.00000000E+00  0.00000000E+00  0.00000000E+00
  0.00000000E+00  0.00000000E+00  0.00000000E+00
  0.00000000E+00  0.00000000E+00  0.00000000E+00
  0.00000000E+00  0.00000000E+00  0.00000000E+00
  0.00000000E+00  0.00000000E+00  0.00000000E+00
  0.00000000E+00  0.00000000E+00  0.00000000E+00
  0.00000000E+00  0.00000000E+00  0.00000000E+00
