Mn O  K                                 
    1.000000000000000     
     5.6768065543707431   -0.0038415531507675   -0.0296542192971883
    -2.8347424377785928    4.9145171174709139    0.0537510505642770
    -0.0505415248334947    0.0481053999687713   10.1452251282565733
   K    Mn   O 
     1     8    16
Direct
     0.0165862633443134    0.4932633601746203    0.4835293253848660
     0.0114678697976077    0.0030689149142039    0.2015563461867957
     0.9920183531365560    0.9949475946637408    0.7827009412824185
     0.0121379757831429    0.4838049148743270    0.1908346456589012
     0.9945802259622630    0.5028421981781516    0.7906387770364905
     0.5036128311497993    0.9936489994540204    0.0233709846785791
     0.4961615518073144    0.0031775515672450    0.7601339174623000
     0.4944778550122610    0.4816060599009284    0.1986154828158837
     0.4988190860602147    0.5031614758870004    0.7827909120784624
     0.1746437610611516    0.3232394027794984    0.0944594038473175
     0.3230544738143655    0.1680028600107669    0.2944980858947201
     0.1606618797131585    0.3363773574631580    0.6950353130422825
     0.3425887314880925    0.1572128039023482    0.8744143338394080
     0.1715373656022187    0.8296792667780872    0.0909686623127941
     0.3261786511979268    0.6313191628071070    0.2850031489140770
     0.1534106447498888    0.8283420757974093    0.6829357878151389
     0.3424169315508097    0.6854261654789920    0.8760783294395369
     0.6675849814949681    0.3220094278908696    0.0925229701971179
     0.8606506228556233    0.1689037398376196    0.2872465257859556
     0.6695446761298439    0.3480516501617330    0.6827710217975111
     0.8091063587104153    0.1543054419736343    0.8766668517602502
     0.6690140358741450    0.8274628076981242    0.0936407030783173
     0.8405984219356882    0.6526429539356764    0.2832222205784982
     0.6628803263224277    0.8305517376672328    0.6792220386005183
     0.8266502305541734    0.6645779157736589    0.8767768694757224
 
  0.00000000E+00  0.00000000E+00  0.00000000E+00
  0.00000000E+00  0.00000000E+00  0.00000000E+00
  0.00000000E+00  0.00000000E+00  0.00000000E+00
  0.00000000E+00  0.00000000E+00  0.00000000E+00
  0.00000000E+00  0.00000000E+00  0.00000000E+00
  0.00000000E+00  0.00000000E+00  0.00000000E+00
  0.00000000E+00  0.00000000E+00  0.00000000E+00
  0.00000000E+00  0.00000000E+00  0.00000000E+00
  0.00000000E+00  0.00000000E+00  0.00000000E+00
  0.00000000E+00  0.00000000E+00  0.00000000E+00
  0.00000000E+00  0.00000000E+00  0.00000000E+00
  0.00000000E+00  0.00000000E+00  0.00000000E+00
  0.00000000E+00  0.00000000E+00  0.00000000E+00
  0.00000000E+00  0.00000000E+00  0.00000000E+00
  0.00000000E+00  0.00000000E+00  0.00000000E+00
  0.00000000E+00  0.00000000E+00  0.00000000E+00
  0.00000000E+00  0.00000000E+00  0.00000000E+00
  0.00000000E+00  0.00000000E+00  0.00000000E+00
  0.00000000E+00  0.00000000E+00  0.00000000E+00
  0.00000000E+00  0.00000000E+00  0.00000000E+00
  0.00000000E+00  0.00000000E+00  0.00000000E+00
  0.00000000E+00  0.00000000E+00  0.00000000E+00
  0.00000000E+00  0.00000000E+00  0.00000000E+00
  0.00000000E+00  0.00000000E+00  0.00000000E+00
  0.00000000E+00  0.00000000E+00  0.00000000E+00
