Mn O  K                                 
    1.000000000000000     
     5.2207450416838261    0.0001588275821217   -0.0740917465220479
     0.0007664721514226    2.8975638592548805   -0.0023040544153812
    -1.4541872902107931    0.0005704615038750    5.7555466983211057
   K    Mn   O 
     1     2     4
Direct
     0.5001974006729230    0.0092572847721534    0.0046970554837620
     0.9962664057187613    0.0086680684826424    0.5056169426231205
     0.4953570714265620    0.5059804291663239    0.5022205875564845
     0.1783507613543406    0.5085140164208349    0.6877342139090125
     0.8168197691415015    0.5085032864998142    0.3224291573037889
     0.7162635192392017    0.0077185080085448    0.6573417121844577
     0.2740212793682685    0.0061124923644557    0.3486944364265767
 
  0.00000000E+00  0.00000000E+00  0.00000000E+00
  0.00000000E+00  0.00000000E+00  0.00000000E+00
  0.00000000E+00  0.00000000E+00  0.00000000E+00
  0.00000000E+00  0.00000000E+00  0.00000000E+00
  0.00000000E+00  0.00000000E+00  0.00000000E+00
  0.00000000E+00  0.00000000E+00  0.00000000E+00
  0.00000000E+00  0.00000000E+00  0.00000000E+00
