K  Mn O                                 
    1.000000000000000     
     5.7072784443794049    0.0003103150664249   -0.0000212785950875
    -2.8539938916140368   -6.6179898005763071    0.0010727564137076
     0.0000195579695336   -0.0000896386658249   -6.4842939727355517
   K    Mn   O 
     4     4     8
Direct
     0.4999805640944148    0.4999897249061256    0.0000997416632070
     0.9999810158356282    0.4999897723509999    0.0000998821600260
     0.9999732822986919    0.9999814931161756    0.4998971814578090
     0.4999731462061344    0.9999812410421630    0.4998973291018275
     0.5000308360019199    0.4999951146199552    0.5001431460789306
     0.5000284702614284    0.0000024315235203    0.9998603514205874
     0.0000317959303773    0.4999953630587589    0.5001435639114966
     0.0000287107299679    0.0000006843855094    0.9998590852637428
     0.1943764759792956    0.3888265357275669    0.3437495247878530
     0.6943776296985974    0.3888262179196487    0.3437495721195324
     0.6943785563642563    0.8888367656944856    0.1562236553690705
     0.1943797664933814    0.8888366176558833    0.1562238601398774
     0.8056291264190252    0.6112109641669611    0.6564555032041552
     0.3056281758224430    0.6112104689140214    0.6564557947998791
     0.3056229659065636    0.1112055209802218    0.8435698117085882
     0.8056224819578731    0.1112060839380052    0.8435699968134150
 
  0.00000000E+00  0.00000000E+00  0.00000000E+00
  0.00000000E+00  0.00000000E+00  0.00000000E+00
  0.00000000E+00  0.00000000E+00  0.00000000E+00
  0.00000000E+00  0.00000000E+00  0.00000000E+00
  0.00000000E+00  0.00000000E+00  0.00000000E+00
  0.00000000E+00  0.00000000E+00  0.00000000E+00
  0.00000000E+00  0.00000000E+00  0.00000000E+00
  0.00000000E+00  0.00000000E+00  0.00000000E+00
  0.00000000E+00  0.00000000E+00  0.00000000E+00
  0.00000000E+00  0.00000000E+00  0.00000000E+00
  0.00000000E+00  0.00000000E+00  0.00000000E+00
  0.00000000E+00  0.00000000E+00  0.00000000E+00
  0.00000000E+00  0.00000000E+00  0.00000000E+00
  0.00000000E+00  0.00000000E+00  0.00000000E+00
  0.00000000E+00  0.00000000E+00  0.00000000E+00
  0.00000000E+00  0.00000000E+00  0.00000000E+00
