 K Mn  O                                
   1.00000000000000     
    11.3744911532873996   -0.0460184852943290    0.0387966250995162
     5.6446698514967704    9.8534371800701042    0.7135242746825652
    -0.0041564464406893    5.9595176535420968    9.7815698748748243
   K    Mn   O 
     1    32    64
Direct
  0.4978435562392059  0.4961297508513957  0.2516097096451538
  0.2489547669050447  0.2505231666770035  0.9992337962959471
  0.9940938945454405  0.9967642994547595  0.0017185562137125
  0.2532824527171920  0.2574551425621286  0.2457030709286806
  0.2378411620158080  0.0101390497918741  0.9947780615416242
  0.2533324799546897  0.2575840100417208  0.4968353482975233
  0.0057379059789175  0.0041259421848577  0.4978046930698043
  0.2491176926541701  0.2506553679927946  0.7502915030782269
  0.2539854919805770  0.0078032765806585  0.4962315077953902
  0.2384841919253305  0.7601077389343811  0.9885311622332014
  0.9997102401377065  0.4996688009870425  0.9992600379722603
  0.2398919935258593  0.7599562058352733  0.2500832468616553
  0.2426688457816865  0.5076854281879439  0.9850533940015158
  0.2516865678559982  0.7579276626487655  0.4981697855050635
  0.9999019391820666  0.4999802078376661  0.5011194786773050
  0.2506741982163583  0.7581115332162258  0.7429209549243783
  0.2432305911749405  0.5076594974487552  0.5069067346639905
  0.7489174989708856  0.2421899567231227  0.0016527377677745
  0.4959770573288098  0.9935259713215693  0.0033520903287330
  0.7598395467667356  0.2398706407517303  0.2500092438740679
  0.7462865168710362  0.9921193736644258  0.0040007253117096
  0.7602293693729086  0.2396618642094014  0.5102985641179425
  0.5044514969276434  0.0063757504254917  0.4968615895594058
  0.7488675916189814  0.2423839360908570  0.7562869289678966
  0.7646256497900523  0.9862116891883396  0.5069450619096237
  0.7468231907968567  0.7426227799213465  0.0033153194823315
  0.4983170978720514  0.4997536989525958  0.9877396087305939
  0.7468502410936212  0.7425823390312082  0.2542178754423041
  0.7547204041349510  0.4930554306817013  0.9947478329255359
  0.7511312839424650  0.7486891468496738  0.5011733281828301
  0.4999435881294504  0.4999779726700733  0.5103384706065351
  0.7509853911059421  0.7486709128598947  0.7503407952167486
  0.7555092835866548  0.4929272858781760  0.5125790033081514
  0.1511620804505281  0.2431270356426835  0.3786357985116882
  0.1311682429762979  0.4924097477792959  0.1093461182868700
  0.3518188257205755  0.2718996556993013  0.1091871774616954
  0.1346192013212003  0.2652016686774846  0.1194556526336402
  0.3603825152851099  0.0156334403880355  0.1026513756352919
  0.3717038829768513  0.0224641480890742  0.3786312269183508
  0.1313704119579603  0.4925898235454526  0.3981453108162150
  0.3723808796225039  0.2441287129715639  0.3777483910574658
  0.1418721501194908  0.2413247927307104  0.8794010735851848
  0.1279801426263782  0.4869286278687093  0.6223930358380119
  0.3520487188838329  0.2719692256332866  0.6187319850879782
  0.1348583347769888  0.2652287749332666  0.6154927360835706
  0.3716992109005539  0.0226711904679000  0.5991679281102139
  0.3605884586929137  0.0157179973231356  0.8817488329409446
  0.1276612617673416  0.4869202289450635  0.8906007907370532
  0.3692960026937007  0.2304597871977390  0.8847981735817242
  0.1422735390469825  0.7447092652264321  0.3846084258063922
  0.1219304975472840  0.9912406692603346  0.1159605426925186
  0.3369838172712921  0.7822587621200351  0.1081321130744746
  0.1298429280611515  0.7633246370675457  0.1182773860526845
  0.3566361141030223  0.5214779916646244  0.0846600475396922
  0.3572931685289276  0.5214188824841540  0.3932551070792664
  0.1363965307445284  0.9928423553012805  0.3934072111106691
  0.3685164908608918  0.7380139613216987  0.3816340151482954
  0.1411293146917943  0.7447787597874396  0.8700530357578983
  0.1359378217257336  0.9927045599572245  0.6139032157827281
  0.3564338622632954  0.7723520391884875  0.6138616077442894
  0.1343449376409530  0.7706091747057722  0.6142349358339572
  0.3654040111755004  0.5214827998968234  0.6080358384030696
  0.3641824839239983  0.5214908009771630  0.8692204255073673
  0.1216634201020287  0.9914597816529069  0.8924551771964565
  0.3676801741277011  0.7377369325133661  0.8793847976884548
  0.6646006670754069  0.2138807717852070  0.3934117805632534
  0.6398977123428250  0.4788099917576644  0.1077029497519094
  0.8571727078511395  0.2561460920690066  0.1158537787359221
  0.6315765727894773  0.2614414189209840  0.1181034451560083
  0.8642163881937939  0.0073976173891408  0.1065555387361352
  0.8792549004219570  0.0079686590897354  0.3842749003713236
  0.6413328435927960  0.4786295668243407  0.4126816694376362
  0.8695963508518717  0.2370152554147777  0.3814170294874991
  0.6439701747406343  0.2278241775987329  0.8862053094751062
  0.6343920060479036  0.4790251503309374  0.6284284454718079
  0.8575113623915537  0.2561165036504968  0.6281574949367467
  0.6319314480834479  0.2616960446751859  0.6203642028123524
  0.8793515080639086  0.0076288616489094  0.6079085210406014
  0.8643131994125745  0.0076916548007245  0.8859461464761798
  0.6342903886430669  0.4786296421217569  0.8922232160558249
  0.8656080185660792  0.2299630041458694  0.8851028366360049
  0.6477489441900313  0.7287096900847072  0.3898883327551438
  0.6288123853953778  0.9777492330255904  0.1215143388768948
  0.8493479275766598  0.7570855199936647  0.1214300663704905
  0.6281894545622273  0.7559424254088427  0.1225698338483931
  0.8680110018543530  0.5078346409761808  0.1025878245983659
  0.8686572451010866  0.5078854575449727  0.3898259040236055
  0.6408563273381565  0.9829838520076610  0.3981963333662909
  0.8657171047996075  0.7342884596041527  0.3811988864207201
  0.6474076836254168  0.7286992502128714  0.8817638046235117
  0.6408361980983300  0.9829399783876684  0.6189363460091328
  0.8594406866812180  0.7556678886033994  0.6221810160066888
  0.6307874696202255  0.7692094884778339  0.6155574536640092
  0.8709065508650032  0.5123789526761356  0.6085981536741959
  0.8707804631831052  0.5125162163493518  0.8793053896397763
  0.6287347559941673  0.9776289595470422  0.9009540513730824
  0.8653610085800860  0.7343074897272057  0.8848370126489855
 
  0.00000000E+00  0.00000000E+00  0.00000000E+00
  0.00000000E+00  0.00000000E+00  0.00000000E+00
  0.00000000E+00  0.00000000E+00  0.00000000E+00
  0.00000000E+00  0.00000000E+00  0.00000000E+00
  0.00000000E+00  0.00000000E+00  0.00000000E+00
  0.00000000E+00  0.00000000E+00  0.00000000E+00
  0.00000000E+00  0.00000000E+00  0.00000000E+00
  0.00000000E+00  0.00000000E+00  0.00000000E+00
  0.00000000E+00  0.00000000E+00  0.00000000E+00
  0.00000000E+00  0.00000000E+00  0.00000000E+00
  0.00000000E+00  0.00000000E+00  0.00000000E+00
  0.00000000E+00  0.00000000E+00  0.00000000E+00
  0.00000000E+00  0.00000000E+00  0.00000000E+00
  0.00000000E+00  0.00000000E+00  0.00000000E+00
  0.00000000E+00  0.00000000E+00  0.00000000E+00
  0.00000000E+00  0.00000000E+00  0.00000000E+00
  0.00000000E+00  0.00000000E+00  0.00000000E+00
  0.00000000E+00  0.00000000E+00  0.00000000E+00
  0.00000000E+00  0.00000000E+00  0.00000000E+00
  0.00000000E+00  0.00000000E+00  0.00000000E+00
  0.00000000E+00  0.00000000E+00  0.00000000E+00
  0.00000000E+00  0.00000000E+00  0.00000000E+00
  0.00000000E+00  0.00000000E+00  0.00000000E+00
  0.00000000E+00  0.00000000E+00  0.00000000E+00
  0.00000000E+00  0.00000000E+00  0.00000000E+00
  0.00000000E+00  0.00000000E+00  0.00000000E+00
  0.00000000E+00  0.00000000E+00  0.00000000E+00
  0.00000000E+00  0.00000000E+00  0.00000000E+00
  0.00000000E+00  0.00000000E+00  0.00000000E+00
  0.00000000E+00  0.00000000E+00  0.00000000E+00
  0.00000000E+00  0.00000000E+00  0.00000000E+00
  0.00000000E+00  0.00000000E+00  0.00000000E+00
  0.00000000E+00  0.00000000E+00  0.00000000E+00
  0.00000000E+00  0.00000000E+00  0.00000000E+00
  0.00000000E+00  0.00000000E+00  0.00000000E+00
  0.00000000E+00  0.00000000E+00  0.00000000E+00
  0.00000000E+00  0.00000000E+00  0.00000000E+00
  0.00000000E+00  0.00000000E+00  0.00000000E+00
  0.00000000E+00  0.00000000E+00  0.00000000E+00
  0.00000000E+00  0.00000000E+00  0.00000000E+00
  0.00000000E+00  0.00000000E+00  0.00000000E+00
  0.00000000E+00  0.00000000E+00  0.00000000E+00
  0.00000000E+00  0.00000000E+00  0.00000000E+00
  0.00000000E+00  0.00000000E+00  0.00000000E+00
  0.00000000E+00  0.00000000E+00  0.00000000E+00
  0.00000000E+00  0.00000000E+00  0.00000000E+00
  0.00000000E+00  0.00000000E+00  0.00000000E+00
  0.00000000E+00  0.00000000E+00  0.00000000E+00
  0.00000000E+00  0.00000000E+00  0.00000000E+00
  0.00000000E+00  0.00000000E+00  0.00000000E+00
  0.00000000E+00  0.00000000E+00  0.00000000E+00
  0.00000000E+00  0.00000000E+00  0.00000000E+00
  0.00000000E+00  0.00000000E+00  0.00000000E+00
  0.00000000E+00  0.00000000E+00  0.00000000E+00
  0.00000000E+00  0.00000000E+00  0.00000000E+00
  0.00000000E+00  0.00000000E+00  0.00000000E+00
  0.00000000E+00  0.00000000E+00  0.00000000E+00
  0.00000000E+00  0.00000000E+00  0.00000000E+00
  0.00000000E+00  0.00000000E+00  0.00000000E+00
  0.00000000E+00  0.00000000E+00  0.00000000E+00
  0.00000000E+00  0.00000000E+00  0.00000000E+00
  0.00000000E+00  0.00000000E+00  0.00000000E+00
  0.00000000E+00  0.00000000E+00  0.00000000E+00
  0.00000000E+00  0.00000000E+00  0.00000000E+00
  0.00000000E+00  0.00000000E+00  0.00000000E+00
  0.00000000E+00  0.00000000E+00  0.00000000E+00
  0.00000000E+00  0.00000000E+00  0.00000000E+00
  0.00000000E+00  0.00000000E+00  0.00000000E+00
  0.00000000E+00  0.00000000E+00  0.00000000E+00
  0.00000000E+00  0.00000000E+00  0.00000000E+00
  0.00000000E+00  0.00000000E+00  0.00000000E+00
  0.00000000E+00  0.00000000E+00  0.00000000E+00
  0.00000000E+00  0.00000000E+00  0.00000000E+00
  0.00000000E+00  0.00000000E+00  0.00000000E+00
  0.00000000E+00  0.00000000E+00  0.00000000E+00
  0.00000000E+00  0.00000000E+00  0.00000000E+00
  0.00000000E+00  0.00000000E+00  0.00000000E+00
  0.00000000E+00  0.00000000E+00  0.00000000E+00
  0.00000000E+00  0.00000000E+00  0.00000000E+00
  0.00000000E+00  0.00000000E+00  0.00000000E+00
  0.00000000E+00  0.00000000E+00  0.00000000E+00
  0.00000000E+00  0.00000000E+00  0.00000000E+00
  0.00000000E+00  0.00000000E+00  0.00000000E+00
  0.00000000E+00  0.00000000E+00  0.00000000E+00
  0.00000000E+00  0.00000000E+00  0.00000000E+00
  0.00000000E+00  0.00000000E+00  0.00000000E+00
  0.00000000E+00  0.00000000E+00  0.00000000E+00
  0.00000000E+00  0.00000000E+00  0.00000000E+00
  0.00000000E+00  0.00000000E+00  0.00000000E+00
  0.00000000E+00  0.00000000E+00  0.00000000E+00
  0.00000000E+00  0.00000000E+00  0.00000000E+00
  0.00000000E+00  0.00000000E+00  0.00000000E+00
  0.00000000E+00  0.00000000E+00  0.00000000E+00
  0.00000000E+00  0.00000000E+00  0.00000000E+00
  0.00000000E+00  0.00000000E+00  0.00000000E+00
  0.00000000E+00  0.00000000E+00  0.00000000E+00
  0.00000000E+00  0.00000000E+00  0.00000000E+00
