Mn O  K                                 
    1.000000000000000     
     2.8688028649519128    0.0010887751579921   -0.0015828512164330
    -0.0035384095680821    5.1817869788168158   -0.0840099951259336
     0.0066949678642183   -0.1134149610573219    9.6963922626077128
   K    Mn   O 
     1     4     8
Direct
     0.7539362396051542    0.4710634975638707    0.9568106105047036
     0.2517982413333437    0.5217258275845371    0.3609184020816044
     0.7544160571230153    0.4603842610772414    0.6150941891012314
     0.7518644431370799    0.0216935173380203    0.1620733825614094
     0.2509335013935307    0.9888553513120225    0.8139441781383981
     0.2518020874599184    0.1928257545873072    0.0960191610556637
     0.7528094213495937    0.6866675382046626    0.4588548770349545
     0.2536963029314334    0.3086038485812788    0.5153663650890806
     0.7505965196710810    0.9224975546423995    0.9372625667987142
     0.2536950464279760    0.6294611245925509    0.7141550259135797
     0.2515910823457143    0.7875704756639481    0.2178821191846661
     0.7515698075209214    0.1697269939457591    0.7284846310261908
     0.7516594313653818    0.3165591945010957    0.2914751866683404
 
  0.00000000E+00  0.00000000E+00  0.00000000E+00
  0.00000000E+00  0.00000000E+00  0.00000000E+00
  0.00000000E+00  0.00000000E+00  0.00000000E+00
  0.00000000E+00  0.00000000E+00  0.00000000E+00
  0.00000000E+00  0.00000000E+00  0.00000000E+00
  0.00000000E+00  0.00000000E+00  0.00000000E+00
  0.00000000E+00  0.00000000E+00  0.00000000E+00
  0.00000000E+00  0.00000000E+00  0.00000000E+00
  0.00000000E+00  0.00000000E+00  0.00000000E+00
  0.00000000E+00  0.00000000E+00  0.00000000E+00
  0.00000000E+00  0.00000000E+00  0.00000000E+00
  0.00000000E+00  0.00000000E+00  0.00000000E+00
  0.00000000E+00  0.00000000E+00  0.00000000E+00
