K  Mn O                                 
    1.000000000000000     
     5.7070098415920194    0.0003062957449921    0.0000153918247358
    -2.8538550565669589   -6.6181612856568499    0.0010482421629534
    -0.0000220343949357   -0.0000957049883061   -6.4844113301683945
   K    Mn   O 
     4     4     8
Direct
     0.4999796837342423    0.4999894869726461    0.0000978613769882
     0.9999809762663541    0.4999897457670675    0.0000980645223483
     0.9999729642314662    0.9999811548005553    0.4998985985508523
     0.4999721280820846    0.9999805298658608    0.4998988207392701
     0.5000295654881720    0.4999939477220748    0.5001442592573010
     0.5000337426807524    0.0000068175139449    0.9998621934597618
     0.0000337226393945    0.4999980625226425    0.5001433567767186
     0.0000301840725421    0.0000017464884845    0.9998586966229740
     0.1943935111761426    0.3888692176728306    0.3438138378079799
     0.6944005026846198    0.3888654962566139    0.3438117626321124
     0.6943900822228247    0.8888762444455613    0.1561631956160857
     0.1944065447271782    0.8888757914624469    0.1561624623846365
     0.8056116307103055    0.6111682420565753    0.6563927033009423
     0.3056033618043752    0.6111684726785337    0.6563908409206181
     0.3056094158014412    0.1111638467788291    0.8436310057039279
     0.8055949836781024    0.1111661969953347    0.8436303403274806
 
  0.00000000E+00  0.00000000E+00  0.00000000E+00
  0.00000000E+00  0.00000000E+00  0.00000000E+00
  0.00000000E+00  0.00000000E+00  0.00000000E+00
  0.00000000E+00  0.00000000E+00  0.00000000E+00
  0.00000000E+00  0.00000000E+00  0.00000000E+00
  0.00000000E+00  0.00000000E+00  0.00000000E+00
  0.00000000E+00  0.00000000E+00  0.00000000E+00
  0.00000000E+00  0.00000000E+00  0.00000000E+00
  0.00000000E+00  0.00000000E+00  0.00000000E+00
  0.00000000E+00  0.00000000E+00  0.00000000E+00
  0.00000000E+00  0.00000000E+00  0.00000000E+00
  0.00000000E+00  0.00000000E+00  0.00000000E+00
  0.00000000E+00  0.00000000E+00  0.00000000E+00
  0.00000000E+00  0.00000000E+00  0.00000000E+00
  0.00000000E+00  0.00000000E+00  0.00000000E+00
  0.00000000E+00  0.00000000E+00  0.00000000E+00
