 K Mn  O                                
   1.00000000000000     
    11.1635694937994394    0.0262653638688659   -0.0219632398326097
    -5.5615245162149964    9.6087433776301552    0.0181096309080257
    -0.0222191626514122   -0.0078224537296850    8.5960348361328158
   K    Mn   O 
     1    32    64
Direct
  0.4943850828571105  0.5077035836646628  0.4978305553774358
  0.9973833286112300  0.9977676580564131  0.2510990154656453
  0.0034135103511102  0.0017266634802903  0.7523628276715125
  0.9999466531408535  0.2488354091858176  0.2510052664037106
  0.9951239292136598  0.2471444205723918  0.7560218942700300
  0.2488318386006664  0.9963618373909582  0.9982449563130951
  0.2506970140086244  0.0015420274155822  0.5002072767031739
  0.2436695987108225  0.2423136858810644  0.2400524534279752
  0.2473034730832865  0.2506808891089291  0.7567472117049716
  0.0004985782299339  0.4998726224076752  0.2513995853896939
  0.9956299805722204  0.4981560862340680  0.7542655609418613
  0.0023969019211147  0.7517370541749953  0.2498985676542640
  0.0007628541257079  0.7505195643397620  0.7487824819058506
  0.2407300629529710  0.4998249941337872  0.9984886622393818
  0.2330327896926370  0.4964431787142166  0.5065619915510522
  0.2503932828396621  0.7505843437050191  0.2483014908237597
  0.2492403012773040  0.7504377529377422  0.7487595249641485
  0.5005336157513131  0.9985454090174671  0.2508399639998309
  0.4990411002091898  0.0019801594514945  0.7500693126582479
  0.4995436654433129  0.2445251888775355  0.2415901108201301
  0.5010464510751197  0.2513231112829395  0.7579274041842406
  0.7526909122034197  0.0048215146533148  0.0028379132141302
  0.7491264182383447  0.9988788155279238  0.5007780564991321
  0.7511904072299679  0.2498145063410978  0.2521602466086376
  0.7478158280425250  0.2483960272270258  0.7503542098205502
  0.4934812890367365  0.4955866217637122  0.1995095101681937
  0.5047101273013674  0.5055656722489303  0.7936539969467429
  0.5024549157641746  0.7516235585436367  0.2332391862585001
  0.5007316042266136  0.7579707288597862  0.7613014569328059
  0.7576700697404869  0.4997413319503422  0.0014528216279955
  0.7598513690781737  0.5013116986595507  0.4985734004094613
  0.7522983245712775  0.7481127159111685  0.2451551167303300
  0.7571294933575066  0.7589720414805239  0.7614896899543599
  0.0764148311596064  0.1614834335015298  0.1385456409327783
  0.1664811845613263  0.0840351284797467  0.3710284265023076
  0.0826198068933324  0.1679877200840670  0.6459545657976962
  0.1656976689615486  0.0813571995836415  0.8751324267861093
  0.0805342469355314  0.4167609187634192  0.1281301782469511
  0.1662112257378970  0.3279010262355302  0.3655150997345493
  0.0678763145781842  0.4095848499277162  0.6354095542327510
  0.1551140077753244  0.3264906300533034  0.8832341380941978
  0.3315275287557749  0.1602322380832673  0.1211397050902038
  0.4183691687473265  0.0844875366763667  0.3718680749338383
  0.3364907663903912  0.1759187736092694  0.6283177276630502
  0.4155253381717925  0.0813510463355454  0.8741266372232296
  0.3246178669441610  0.4050770238071125  0.1039641439677617
  0.4145075300048692  0.3305680246043776  0.3265236582602733
  0.3115553349197296  0.4178175442555754  0.6608550051648584
  0.4141337387972530  0.3298672416542613  0.8705490599344000
  0.0828151675253377  0.6665677571571677  0.1425773009129208
  0.1639597787460844  0.5847624455743219  0.3740547147265485
  0.0818098467775001  0.6649349241550830  0.6421560401301729
  0.1628573504828164  0.5831208236626947  0.8726271270552051
  0.0823699871121329  0.9156130018439799  0.1283293941323103
  0.1680475335366743  0.8345771531543452  0.3745495271676946
  0.0837072129999530  0.9179839174685414  0.6267250780216828
  0.1652369278603505  0.8307852644381301  0.8722264732348838
  0.3283569051800843  0.6747189610201214  0.1130373201933189
  0.4046242418866921  0.5798349537185936  0.3128547334896672
  0.3380121798009907  0.6725187580981932  0.6339923163655534
  0.4180593529234140  0.5903349146023770  0.8898160565819386
  0.3335910992368764  0.9166156199451522  0.1283891754616907
  0.4186228317418377  0.8298106337483999  0.3528854761445492
  0.3333391403302945  0.9175950823106417  0.6261824978343252
  0.4140412390748706  0.8381066878983419  0.8616433216975916
  0.5861637854859116  0.1642618653083438  0.1412046725472892
  0.6663599763410688  0.0824671188407698  0.3747432972660947
  0.5811074256692201  0.1685756876730401  0.6430967787535254
  0.6655973068847105  0.0846530892118821  0.8724374218428581
  0.5844717930924583  0.4092424302346268  0.1117914980541736
  0.6660116209555919  0.3315263968250347  0.3724605119078713
  0.5965067610795732  0.4200536748956792  0.6580310735029405
  0.6694918277337649  0.3287324855858436  0.8801897460091204
  0.8342782127135019  0.1697808711275626  0.1288236133044988
  0.9162296715910100  0.0821857156350108  0.3747672356614833
  0.8300417314517975  0.1635128987111110  0.6276950218328451
  0.9165955495717359  0.0814305243527118  0.8757089589161908
  0.8356249063323046  0.4165353513548896  0.1298819173140894
  0.9179359966729976  0.3332188702812570  0.3602214841978097
  0.8333218241462814  0.4155240710773903  0.6279744000806684
  0.9113878933905252  0.3307267193496096  0.8623664080641462
  0.5918921535496832  0.6731211016739684  0.1235905932381094
  0.6856050981025210  0.5808265568879797  0.3468958788374152
  0.5879572094102616  0.6745587518634549  0.6752416905535140
  0.6735656292575961  0.5902646799290300  0.8898355163547134
  0.5857606606491251  0.9230283846785280  0.1234370621443168
  0.6620662054477551  0.8234351973201607  0.3707180068027895
  0.5817697681732237  0.9164853130400873  0.6298823328413321
  0.6715444774409822  0.8409576065062950  0.8805647180863451
  0.8422691930765044  0.6712015419644176  0.1215785894609101
  0.9217896246783470  0.5845577248071376  0.3768908924796506
  0.8338495513850622  0.6692887698312343  0.6306250467824860
  0.9181166378414776  0.5853729080176112  0.8745664708694910
  0.8347213364427941  0.9183994739115507  0.1281040206516012
  0.9163461856295245  0.8319093308030774  0.3582734040865571
  0.8342019802033387  0.9157007608184136  0.6308584345663788
  0.9236905717096625  0.8368256454566029  0.8624864422140128
 
  0.00000000E+00  0.00000000E+00  0.00000000E+00
  0.00000000E+00  0.00000000E+00  0.00000000E+00
  0.00000000E+00  0.00000000E+00  0.00000000E+00
  0.00000000E+00  0.00000000E+00  0.00000000E+00
  0.00000000E+00  0.00000000E+00  0.00000000E+00
  0.00000000E+00  0.00000000E+00  0.00000000E+00
  0.00000000E+00  0.00000000E+00  0.00000000E+00
  0.00000000E+00  0.00000000E+00  0.00000000E+00
  0.00000000E+00  0.00000000E+00  0.00000000E+00
  0.00000000E+00  0.00000000E+00  0.00000000E+00
  0.00000000E+00  0.00000000E+00  0.00000000E+00
  0.00000000E+00  0.00000000E+00  0.00000000E+00
  0.00000000E+00  0.00000000E+00  0.00000000E+00
  0.00000000E+00  0.00000000E+00  0.00000000E+00
  0.00000000E+00  0.00000000E+00  0.00000000E+00
  0.00000000E+00  0.00000000E+00  0.00000000E+00
  0.00000000E+00  0.00000000E+00  0.00000000E+00
  0.00000000E+00  0.00000000E+00  0.00000000E+00
  0.00000000E+00  0.00000000E+00  0.00000000E+00
  0.00000000E+00  0.00000000E+00  0.00000000E+00
  0.00000000E+00  0.00000000E+00  0.00000000E+00
  0.00000000E+00  0.00000000E+00  0.00000000E+00
  0.00000000E+00  0.00000000E+00  0.00000000E+00
  0.00000000E+00  0.00000000E+00  0.00000000E+00
  0.00000000E+00  0.00000000E+00  0.00000000E+00
  0.00000000E+00  0.00000000E+00  0.00000000E+00
  0.00000000E+00  0.00000000E+00  0.00000000E+00
  0.00000000E+00  0.00000000E+00  0.00000000E+00
  0.00000000E+00  0.00000000E+00  0.00000000E+00
  0.00000000E+00  0.00000000E+00  0.00000000E+00
  0.00000000E+00  0.00000000E+00  0.00000000E+00
  0.00000000E+00  0.00000000E+00  0.00000000E+00
  0.00000000E+00  0.00000000E+00  0.00000000E+00
  0.00000000E+00  0.00000000E+00  0.00000000E+00
  0.00000000E+00  0.00000000E+00  0.00000000E+00
  0.00000000E+00  0.00000000E+00  0.00000000E+00
  0.00000000E+00  0.00000000E+00  0.00000000E+00
  0.00000000E+00  0.00000000E+00  0.00000000E+00
  0.00000000E+00  0.00000000E+00  0.00000000E+00
  0.00000000E+00  0.00000000E+00  0.00000000E+00
  0.00000000E+00  0.00000000E+00  0.00000000E+00
  0.00000000E+00  0.00000000E+00  0.00000000E+00
  0.00000000E+00  0.00000000E+00  0.00000000E+00
  0.00000000E+00  0.00000000E+00  0.00000000E+00
  0.00000000E+00  0.00000000E+00  0.00000000E+00
  0.00000000E+00  0.00000000E+00  0.00000000E+00
  0.00000000E+00  0.00000000E+00  0.00000000E+00
  0.00000000E+00  0.00000000E+00  0.00000000E+00
  0.00000000E+00  0.00000000E+00  0.00000000E+00
  0.00000000E+00  0.00000000E+00  0.00000000E+00
  0.00000000E+00  0.00000000E+00  0.00000000E+00
  0.00000000E+00  0.00000000E+00  0.00000000E+00
  0.00000000E+00  0.00000000E+00  0.00000000E+00
  0.00000000E+00  0.00000000E+00  0.00000000E+00
  0.00000000E+00  0.00000000E+00  0.00000000E+00
  0.00000000E+00  0.00000000E+00  0.00000000E+00
  0.00000000E+00  0.00000000E+00  0.00000000E+00
  0.00000000E+00  0.00000000E+00  0.00000000E+00
  0.00000000E+00  0.00000000E+00  0.00000000E+00
  0.00000000E+00  0.00000000E+00  0.00000000E+00
  0.00000000E+00  0.00000000E+00  0.00000000E+00
  0.00000000E+00  0.00000000E+00  0.00000000E+00
  0.00000000E+00  0.00000000E+00  0.00000000E+00
  0.00000000E+00  0.00000000E+00  0.00000000E+00
  0.00000000E+00  0.00000000E+00  0.00000000E+00
  0.00000000E+00  0.00000000E+00  0.00000000E+00
  0.00000000E+00  0.00000000E+00  0.00000000E+00
  0.00000000E+00  0.00000000E+00  0.00000000E+00
  0.00000000E+00  0.00000000E+00  0.00000000E+00
  0.00000000E+00  0.00000000E+00  0.00000000E+00
  0.00000000E+00  0.00000000E+00  0.00000000E+00
  0.00000000E+00  0.00000000E+00  0.00000000E+00
  0.00000000E+00  0.00000000E+00  0.00000000E+00
  0.00000000E+00  0.00000000E+00  0.00000000E+00
  0.00000000E+00  0.00000000E+00  0.00000000E+00
  0.00000000E+00  0.00000000E+00  0.00000000E+00
  0.00000000E+00  0.00000000E+00  0.00000000E+00
  0.00000000E+00  0.00000000E+00  0.00000000E+00
  0.00000000E+00  0.00000000E+00  0.00000000E+00
  0.00000000E+00  0.00000000E+00  0.00000000E+00
  0.00000000E+00  0.00000000E+00  0.00000000E+00
  0.00000000E+00  0.00000000E+00  0.00000000E+00
  0.00000000E+00  0.00000000E+00  0.00000000E+00
  0.00000000E+00  0.00000000E+00  0.00000000E+00
  0.00000000E+00  0.00000000E+00  0.00000000E+00
  0.00000000E+00  0.00000000E+00  0.00000000E+00
  0.00000000E+00  0.00000000E+00  0.00000000E+00
  0.00000000E+00  0.00000000E+00  0.00000000E+00
  0.00000000E+00  0.00000000E+00  0.00000000E+00
  0.00000000E+00  0.00000000E+00  0.00000000E+00
  0.00000000E+00  0.00000000E+00  0.00000000E+00
  0.00000000E+00  0.00000000E+00  0.00000000E+00
  0.00000000E+00  0.00000000E+00  0.00000000E+00
  0.00000000E+00  0.00000000E+00  0.00000000E+00
  0.00000000E+00  0.00000000E+00  0.00000000E+00
  0.00000000E+00  0.00000000E+00  0.00000000E+00
  0.00000000E+00  0.00000000E+00  0.00000000E+00
