Mn O  K                                 
    1.000000000000000     
     9.7234480813204414    0.0029651190208623   -0.0019505828775388
     0.0035568101579547    9.7156208286969239   -0.0019325905540146
    -0.0010743424554988   -0.0001343592998168    2.8539746469618068
   K    Mn   O 
     1     8    16
Direct
     0.4996227994085081    0.5006899032169873    0.9936243110466710
     0.3321658497352462    0.1520984339554572    0.4820016361096148
     0.6675229477943067    0.8481644430239502    0.4814347198908749
     0.8478648810371106    0.3304275539911050    0.4889559402691502
     0.1518460187325297    0.6693226470296922    0.4730718466541184
     0.8336074014804866    0.6521976138080449    0.9802760079785867
     0.1660866927477010    0.3480997288436246    0.9803467657422192
     0.3476378558407355    0.8342715998193031    0.9797309438077505
     0.6519411851189224    0.1656724443947706    0.9829392858289963
     0.2033327593655650    0.1568130122745933    0.9826723963355380
     0.7963750146898816    0.8437996182263053    0.9831736777514507
     0.8437414528790914    0.2018382228243551    0.9873872998997638
     0.1560819828660843    0.7982555187814731    0.9763225977994846
     0.6997108095083109    0.6529131704040317    0.4823472492475049
     0.2997091562234539    0.3477413810693127    0.4831194197853053
     0.3468612374900380    0.7008867566101277    0.4800479714257967
     0.6528687622415950    0.2993466971516240    0.4862447283439719
     0.4582236233001103    0.1679704572078791    0.9836358925510964
     0.5414139634679483    0.8328182863629933    0.9822884285916100
     0.8320077157905035    0.4574583006735667    0.9870296434757537
     0.1670937173916170    0.5428371408336841    0.9757889569874142
     0.9584467855776503    0.6632428583115950    0.4804524964917853
     0.0411144878467168    0.3381765496372818    0.4823964532159863
     0.3375947058731588    0.9592569457864737    0.4809834642297243
     0.6618466333527282    0.0409550562002746    0.4841527503312941
 
  0.00000000E+00  0.00000000E+00  0.00000000E+00
  0.00000000E+00  0.00000000E+00  0.00000000E+00
  0.00000000E+00  0.00000000E+00  0.00000000E+00
  0.00000000E+00  0.00000000E+00  0.00000000E+00
  0.00000000E+00  0.00000000E+00  0.00000000E+00
  0.00000000E+00  0.00000000E+00  0.00000000E+00
  0.00000000E+00  0.00000000E+00  0.00000000E+00
  0.00000000E+00  0.00000000E+00  0.00000000E+00
  0.00000000E+00  0.00000000E+00  0.00000000E+00
  0.00000000E+00  0.00000000E+00  0.00000000E+00
  0.00000000E+00  0.00000000E+00  0.00000000E+00
  0.00000000E+00  0.00000000E+00  0.00000000E+00
  0.00000000E+00  0.00000000E+00  0.00000000E+00
  0.00000000E+00  0.00000000E+00  0.00000000E+00
  0.00000000E+00  0.00000000E+00  0.00000000E+00
  0.00000000E+00  0.00000000E+00  0.00000000E+00
  0.00000000E+00  0.00000000E+00  0.00000000E+00
  0.00000000E+00  0.00000000E+00  0.00000000E+00
  0.00000000E+00  0.00000000E+00  0.00000000E+00
  0.00000000E+00  0.00000000E+00  0.00000000E+00
  0.00000000E+00  0.00000000E+00  0.00000000E+00
  0.00000000E+00  0.00000000E+00  0.00000000E+00
  0.00000000E+00  0.00000000E+00  0.00000000E+00
  0.00000000E+00  0.00000000E+00  0.00000000E+00
  0.00000000E+00  0.00000000E+00  0.00000000E+00
