K  Mn O                                 
    1.000000000000000     
     6.1465779527936570    0.0000420203590498    0.0000261413284437
     0.0000669834984265    9.6721039486620981    0.0001776075642661
     0.0000727813601981    0.0003066532976822   16.6505404164824853
   K    Mn   O 
    20    12    24
Direct
     0.6377559153786275    0.4238727045615093    0.4145273148751653
     0.1377604314248324    0.5761330034021692    0.5854727393173685
     0.1377680588530835    0.9238611627085408    0.0854739536042878
     0.6377623835757872    0.0761279859265227    0.9145282171645280
     0.6525081594264672    0.3835788023780708    0.6142668822836613
     0.1525079620526052    0.6164223697046929    0.3857327010938970
     0.1525008044478942    0.8835784407594934    0.8857291690961466
     0.6525016629727867    0.1164232727282744    0.1142707259615984
     0.2428245409529330    0.9123366393312830    0.4972242010494795
     0.7428305480363367    0.0876688058292672    0.5027757638347963
     0.7428236267421108    0.4123350163263394    0.0027690891329004
     0.2428266894956078    0.5876575194063374    0.9972297840486271
     0.5426705351510663    0.0548455774253052    0.7156417146268531
     0.0426701065667491    0.9451593941653672    0.2843579162427356
     0.0426783434064634    0.5548426415196114    0.7843610819940493
     0.5426753638035597    0.4451561364424397    0.2156417462740137
     0.0112396145180937    0.8845240436214288    0.6858791121375397
     0.5112352741938143    0.1154759342157661    0.3141219698956813
     0.5112340719819867    0.3845264029975289    0.8141188858171534
     0.0112457483307586    0.6154718737466678    0.1858818912025753
     0.6325112895567672    0.7240844490793343    0.5796756990885074
     0.1325148205837428    0.2759221230471056    0.4203245157708643
     0.1325094411331356    0.2240834460248200    0.9203231552978365
     0.6325128230698603    0.7759163307330026    0.0796772624659807
     0.6590426886544811    0.7634061078290492    0.4133037320695672
     0.1590465729878915    0.2365929372178624    0.5866971617818554
     0.1590457600682680    0.2634144196074986    0.0866957690108732
     0.6590434860171136    0.7365911268173403    0.9133013700030900
     0.5551769536036526    0.7241805483638530    0.7485185297721549
     0.0551576506197079    0.2758176930429936    0.2514842074939877
     0.0551748753089541    0.2241802019481969    0.7514810432402261
     0.5551828328512058    0.7758208321426777    0.2485201662058518
     0.7787004627353634    0.6466053775535516    0.6683605563738936
     0.2786855698860172    0.3533944193082870    0.3316394618192993
     0.2786958724372929    0.1466074322251908    0.8316418133789634
     0.7787009149702635    0.8533920201326077    0.1683591341248949
     0.4660952127241240    0.6579214202689999    0.4939759267722530
     0.9660992832923168    0.3420816909480902    0.5060199229314842
     0.9660950772462321    0.1579178899125829    0.0060199676313374
     0.4660904329997511    0.8420742740534064    0.9939779174110432
     0.7494121677001833    0.6480770727031382    0.3169078034727961
     0.2494079370879472    0.3519228219366031    0.6830935336070912
     0.2493959949501705    0.1480707533080419    0.1830967769666547
     0.7493996809388498    0.8519236417510426    0.8169066140127093
     0.4241329199534898    0.6460510769779723    0.8481394708988447
     0.9241293708059933    0.3539550664484627    0.1518563938433433
     0.9241290348995808    0.1460492725297115    0.6518589347329254
     0.4241252898876151    0.8539498169323051    0.3481358234697817
     0.4161683853638256    0.8047463876034781    0.6462154238986304
     0.9161640109448249    0.1952542858903068    0.3537806637829748
     0.9161599903005044    0.3047456116815645    0.8537762765840020
     0.4161685746707270    0.6952524069677462    0.1462195363515366
     0.8575565973015367    0.7861051350717569    0.5084717410134217
     0.3575581656443073    0.2138979060520785    0.4915322868618932
     0.3575500407139553    0.2861011494375824    0.9915318484423403
     0.8575559767787904    0.7138951272551431    0.0084746997640327
 
  0.00000000E+00  0.00000000E+00  0.00000000E+00
  0.00000000E+00  0.00000000E+00  0.00000000E+00
  0.00000000E+00  0.00000000E+00  0.00000000E+00
  0.00000000E+00  0.00000000E+00  0.00000000E+00
  0.00000000E+00  0.00000000E+00  0.00000000E+00
  0.00000000E+00  0.00000000E+00  0.00000000E+00
  0.00000000E+00  0.00000000E+00  0.00000000E+00
  0.00000000E+00  0.00000000E+00  0.00000000E+00
  0.00000000E+00  0.00000000E+00  0.00000000E+00
  0.00000000E+00  0.00000000E+00  0.00000000E+00
  0.00000000E+00  0.00000000E+00  0.00000000E+00
  0.00000000E+00  0.00000000E+00  0.00000000E+00
  0.00000000E+00  0.00000000E+00  0.00000000E+00
  0.00000000E+00  0.00000000E+00  0.00000000E+00
  0.00000000E+00  0.00000000E+00  0.00000000E+00
  0.00000000E+00  0.00000000E+00  0.00000000E+00
  0.00000000E+00  0.00000000E+00  0.00000000E+00
  0.00000000E+00  0.00000000E+00  0.00000000E+00
  0.00000000E+00  0.00000000E+00  0.00000000E+00
  0.00000000E+00  0.00000000E+00  0.00000000E+00
  0.00000000E+00  0.00000000E+00  0.00000000E+00
  0.00000000E+00  0.00000000E+00  0.00000000E+00
  0.00000000E+00  0.00000000E+00  0.00000000E+00
  0.00000000E+00  0.00000000E+00  0.00000000E+00
  0.00000000E+00  0.00000000E+00  0.00000000E+00
  0.00000000E+00  0.00000000E+00  0.00000000E+00
  0.00000000E+00  0.00000000E+00  0.00000000E+00
  0.00000000E+00  0.00000000E+00  0.00000000E+00
  0.00000000E+00  0.00000000E+00  0.00000000E+00
  0.00000000E+00  0.00000000E+00  0.00000000E+00
  0.00000000E+00  0.00000000E+00  0.00000000E+00
  0.00000000E+00  0.00000000E+00  0.00000000E+00
  0.00000000E+00  0.00000000E+00  0.00000000E+00
  0.00000000E+00  0.00000000E+00  0.00000000E+00
  0.00000000E+00  0.00000000E+00  0.00000000E+00
  0.00000000E+00  0.00000000E+00  0.00000000E+00
  0.00000000E+00  0.00000000E+00  0.00000000E+00
  0.00000000E+00  0.00000000E+00  0.00000000E+00
  0.00000000E+00  0.00000000E+00  0.00000000E+00
  0.00000000E+00  0.00000000E+00  0.00000000E+00
  0.00000000E+00  0.00000000E+00  0.00000000E+00
  0.00000000E+00  0.00000000E+00  0.00000000E+00
  0.00000000E+00  0.00000000E+00  0.00000000E+00
  0.00000000E+00  0.00000000E+00  0.00000000E+00
  0.00000000E+00  0.00000000E+00  0.00000000E+00
  0.00000000E+00  0.00000000E+00  0.00000000E+00
  0.00000000E+00  0.00000000E+00  0.00000000E+00
  0.00000000E+00  0.00000000E+00  0.00000000E+00
  0.00000000E+00  0.00000000E+00  0.00000000E+00
  0.00000000E+00  0.00000000E+00  0.00000000E+00
  0.00000000E+00  0.00000000E+00  0.00000000E+00
  0.00000000E+00  0.00000000E+00  0.00000000E+00
  0.00000000E+00  0.00000000E+00  0.00000000E+00
  0.00000000E+00  0.00000000E+00  0.00000000E+00
  0.00000000E+00  0.00000000E+00  0.00000000E+00
  0.00000000E+00  0.00000000E+00  0.00000000E+00
