Mn O  K                                 
    1.000000000000000     
     6.0972253257538123   -0.0003170681148799   -0.0016263626426872
     3.0391451965529339    4.9551083014747448    0.1987403739363525
    -0.0191766844319548    2.8745459579035382    5.0561170452791089
   K    Mn   O 
     1     4     8
Direct
     0.0008555354034303    0.5012815298103306    0.4900658680718613
     0.5010304371368767    0.5009571460428101    0.9903321518537338
     0.0008436698110579    0.0021484330337058    0.9906647108823848
     0.4994937762696410    0.5052413001069289    0.4898546265102833
     0.5000203182060327    0.0024205687405769    0.9916994510582218
     0.3187015001198308    0.4613260090933310    0.7673634035540204
     0.2658795036559028    0.9730581401394844    0.2259866154414848
     0.6798324931129355    0.5459317416719293    0.2135911381623063
     0.2772831580024342    0.5456739853842969    0.2125631599883849
     0.7235952778896193    0.0568695022985115    0.1724992665917922
     0.7342869318132693    0.0340964121831009    0.7565662620715153
     0.2771415252067000    0.9471910632662991    0.8105824951394623
     0.7235087360460473    0.4615756414713160    0.7683364242347351
 
  0.00000000E+00  0.00000000E+00  0.00000000E+00
  0.00000000E+00  0.00000000E+00  0.00000000E+00
  0.00000000E+00  0.00000000E+00  0.00000000E+00
  0.00000000E+00  0.00000000E+00  0.00000000E+00
  0.00000000E+00  0.00000000E+00  0.00000000E+00
  0.00000000E+00  0.00000000E+00  0.00000000E+00
  0.00000000E+00  0.00000000E+00  0.00000000E+00
  0.00000000E+00  0.00000000E+00  0.00000000E+00
  0.00000000E+00  0.00000000E+00  0.00000000E+00
  0.00000000E+00  0.00000000E+00  0.00000000E+00
  0.00000000E+00  0.00000000E+00  0.00000000E+00
  0.00000000E+00  0.00000000E+00  0.00000000E+00
  0.00000000E+00  0.00000000E+00  0.00000000E+00
