K  Mn O                                 
    1.000000000000000     
    11.2970265980318487   -0.0000009202388290    0.0000015056699521
    -0.0000005492563189    6.2679306362339604   -0.0022189125884332
     0.0000012417193870    0.8616254799548482   10.1163555945404120
   K    Mn   O 
    12    12    24
Direct
     0.7499983029023763    0.8274672498802141    0.4246256746127683
     0.4632098955095542    0.8094769683819382    0.4152169215105371
     0.5367896181592791    0.1905305442557498    0.5847805054121532
     0.7499987412066643    0.0752003376216139    0.8228847167314880
     0.1049723686534298    0.0664103798614662    0.8832466641398377
     0.6049716493089590    0.9335888908981933    0.1167532087564990
     0.2499995567460612    0.9247990681380861    0.1771155432904521
     0.9632103827350437    0.1905216719828197    0.5847826778288429
     0.3950287733183588    0.0664125175144828    0.8832472113733991
     0.8950285172418500    0.9335869767015861    0.1167534513589240
     0.0367900671596216    0.8094685261300910    0.4152196194679965
     0.2499983996177984    0.1725319318871052    0.5753737190274220
     0.5011556092943188    0.3630227672199281    0.2704173111884245
     0.7500211710785051    0.3562134519930681    0.2817086024350874
     0.2500086113594922    0.3799267508167484    0.2719831474174960
     0.8749227130594212    0.4836404135788733    0.9888995266033137
     0.2500197544504691    0.6437923205291587    0.7182862391625839
     0.7500066969451662    0.6200696095406845    0.7280143028774767
     0.0011556269104619    0.6369773756813566    0.7295849545713864
     0.3749236113852422    0.5163630202954040    0.0111056777713088
     0.4988566450726321    0.6369795676653393    0.7295839841264214
     0.6251014061459712    0.4836236812485806    0.9889154355208098
     0.9988595898478735    0.3630181368272585    0.2704136046466126
     0.1251040712912468    0.5163748443224144    0.0110862940856441
     0.2499971567079187    0.3161935386709276    0.0551947997681598
     0.6218171780399586    0.4255929340801752    0.7727193290616040
     0.1218197154829258    0.5744038785053318    0.2272814023501930
     0.3720446394666401    0.1931486523186210    0.3402887826350434
     0.6211062167162178    0.1638251149086928    0.3298966459097890
     0.3788893418231125    0.8361635293607605    0.6701013748029374
     0.7499949135532529    0.6838068789615074    0.9448083808526525
     0.8733428601937705    0.5643734404394517    0.2673128389505974
     0.2499946216174147    0.7043357125901706    0.9441841263918316
     0.1266320153251313    0.4356199382450539    0.7326795258490034
     0.1211075426889951    0.8361783549513765    0.6701016507694125
     0.7499928861753026    0.2956638183266969    0.0558179435389892
     0.0019957590363984    0.3099743766841879    0.0595218382584342
     0.8781709362089480    0.4255935060090822    0.7727211808713411
     0.4979893263014989    0.3099604882791185    0.0595221052758332
     0.9979905380568933    0.6900412355790924    0.9404801185358638
     0.1279561902854287    0.1931404547842506    0.3403033651398577
     0.6279540695721133    0.8068615260709086    0.6596954553140805
     0.6266301172955523    0.5643795218845022    0.2673192794179426
     0.8788900860155910    0.1638383595918939    0.3298974171490402
     0.3781707152235419    0.5744025847063803    0.2272777516019382
     0.5019944639012093    0.6900248539746525    0.9404805671180262
     0.8720451155104161    0.8068537466125726    0.6597089738879477
     0.3733418154019714    0.4356265514924317    0.7326861526325965
 
  0.00000000E+00  0.00000000E+00  0.00000000E+00
  0.00000000E+00  0.00000000E+00  0.00000000E+00
  0.00000000E+00  0.00000000E+00  0.00000000E+00
  0.00000000E+00  0.00000000E+00  0.00000000E+00
  0.00000000E+00  0.00000000E+00  0.00000000E+00
  0.00000000E+00  0.00000000E+00  0.00000000E+00
  0.00000000E+00  0.00000000E+00  0.00000000E+00
  0.00000000E+00  0.00000000E+00  0.00000000E+00
  0.00000000E+00  0.00000000E+00  0.00000000E+00
  0.00000000E+00  0.00000000E+00  0.00000000E+00
  0.00000000E+00  0.00000000E+00  0.00000000E+00
  0.00000000E+00  0.00000000E+00  0.00000000E+00
  0.00000000E+00  0.00000000E+00  0.00000000E+00
  0.00000000E+00  0.00000000E+00  0.00000000E+00
  0.00000000E+00  0.00000000E+00  0.00000000E+00
  0.00000000E+00  0.00000000E+00  0.00000000E+00
  0.00000000E+00  0.00000000E+00  0.00000000E+00
  0.00000000E+00  0.00000000E+00  0.00000000E+00
  0.00000000E+00  0.00000000E+00  0.00000000E+00
  0.00000000E+00  0.00000000E+00  0.00000000E+00
  0.00000000E+00  0.00000000E+00  0.00000000E+00
  0.00000000E+00  0.00000000E+00  0.00000000E+00
  0.00000000E+00  0.00000000E+00  0.00000000E+00
  0.00000000E+00  0.00000000E+00  0.00000000E+00
  0.00000000E+00  0.00000000E+00  0.00000000E+00
  0.00000000E+00  0.00000000E+00  0.00000000E+00
  0.00000000E+00  0.00000000E+00  0.00000000E+00
  0.00000000E+00  0.00000000E+00  0.00000000E+00
  0.00000000E+00  0.00000000E+00  0.00000000E+00
  0.00000000E+00  0.00000000E+00  0.00000000E+00
  0.00000000E+00  0.00000000E+00  0.00000000E+00
  0.00000000E+00  0.00000000E+00  0.00000000E+00
  0.00000000E+00  0.00000000E+00  0.00000000E+00
  0.00000000E+00  0.00000000E+00  0.00000000E+00
  0.00000000E+00  0.00000000E+00  0.00000000E+00
  0.00000000E+00  0.00000000E+00  0.00000000E+00
  0.00000000E+00  0.00000000E+00  0.00000000E+00
  0.00000000E+00  0.00000000E+00  0.00000000E+00
  0.00000000E+00  0.00000000E+00  0.00000000E+00
  0.00000000E+00  0.00000000E+00  0.00000000E+00
  0.00000000E+00  0.00000000E+00  0.00000000E+00
  0.00000000E+00  0.00000000E+00  0.00000000E+00
  0.00000000E+00  0.00000000E+00  0.00000000E+00
  0.00000000E+00  0.00000000E+00  0.00000000E+00
  0.00000000E+00  0.00000000E+00  0.00000000E+00
  0.00000000E+00  0.00000000E+00  0.00000000E+00
  0.00000000E+00  0.00000000E+00  0.00000000E+00
  0.00000000E+00  0.00000000E+00  0.00000000E+00
