K  Mn O                                 
    1.000000000000000     
    -5.6129733973920466    0.0027759352889201   -1.3613765834315639
     0.1475136436483532    6.2817807440055686   -0.5974344365894597
     1.3424518440957325   -3.1625334586921769   -5.5340869724766941
   K    Mn   O 
     4     4     8
Direct
     0.0001683199421572    0.4999922295355407    0.4999534780743752
     0.7498146190221453    0.0001007675626188    0.5000341206998131
     0.5001680815314298    0.5000100207001457    0.4999360531801079
     0.2498090499395695    0.0000910396952326    0.5000456605780605
     0.0021146710601631    0.9999000705080813    0.9999453735021155
     0.7479403283992145    0.5000509060831891    0.0000748633320046
     0.2479200386652314    0.5001579523017174    0.0000543217267561
     0.5020526905188639    0.9996019189770847    0.0000140603966841
     0.2508633729120266    0.1778646246077022    0.1821268705306284
     0.9991936889539473    0.6780434121755144    0.1822437229377609
     0.7508480080501928    0.1778853422529475    0.1821252816626457
     0.4991989478931808    0.6781013544717475    0.1822170330887194
     0.2508013570764265    0.8219465404825590    0.8177441969079605
     0.9991529548123670    0.3220961597728951    0.8178881331549492
     0.7508208571389322    0.8219772324617174    0.8177281829323669
     0.4991470140841453    0.3221504284112975    0.8178636472950435
 
  0.00000000E+00  0.00000000E+00 -0.00000000E+00
  0.00000000E+00  0.00000000E+00 -0.00000000E+00
  0.00000000E+00  0.00000000E+00 -0.00000000E+00
  0.00000000E+00  0.00000000E+00 -0.00000000E+00
  0.00000000E+00  0.00000000E+00 -0.00000000E+00
  0.00000000E+00  0.00000000E+00 -0.00000000E+00
  0.00000000E+00  0.00000000E+00 -0.00000000E+00
  0.00000000E+00  0.00000000E+00 -0.00000000E+00
  0.00000000E+00  0.00000000E+00 -0.00000000E+00
  0.00000000E+00  0.00000000E+00 -0.00000000E+00
  0.00000000E+00  0.00000000E+00 -0.00000000E+00
  0.00000000E+00  0.00000000E+00 -0.00000000E+00
  0.00000000E+00  0.00000000E+00 -0.00000000E+00
  0.00000000E+00  0.00000000E+00 -0.00000000E+00
  0.00000000E+00  0.00000000E+00 -0.00000000E+00
  0.00000000E+00  0.00000000E+00 -0.00000000E+00
