K  Mn O                                 
    1.000000000000000     
     1.5854343207217219    6.2491592591819565   -0.2821562971020314
    -1.5863534963809820    6.2504139745448448   -0.2828941360760720
    -0.0001776703976432    4.8091690883079732    6.0827289247287064
   K    Mn   O 
     2     2     4
Direct
     0.8311887009762789    0.8308598136732246    0.2226732839294064
     0.1683674507020358    0.1685933883710876    0.7790686001310909
     0.9507802862425772    0.9505846054348620    0.7013461450379228
     0.0550969935356197    0.0552931688540931    0.2866862975664843
     0.1189225426191205    0.1194202037705722    0.4608534026037723
     0.4328554213659792    0.4325329408448181    0.8523270485054099
     0.5661588788807482    0.5665000065747275    0.1401516303055461
     0.8766297256776412    0.8762158724766138    0.5568935919203675
 
  0.00000000E+00  0.00000000E+00  0.00000000E+00
  0.00000000E+00  0.00000000E+00  0.00000000E+00
  0.00000000E+00  0.00000000E+00  0.00000000E+00
  0.00000000E+00  0.00000000E+00  0.00000000E+00
  0.00000000E+00  0.00000000E+00  0.00000000E+00
  0.00000000E+00  0.00000000E+00  0.00000000E+00
  0.00000000E+00  0.00000000E+00  0.00000000E+00
  0.00000000E+00  0.00000000E+00  0.00000000E+00
