K  Mn O                                 
    1.000000000000000     
    12.6485399342965987   -0.0000762260596167   -0.0000467084257560
    -0.0000180578878703    2.9733171454057770    0.0074758943735906
    -0.0000204401655702    0.2930296326950280    5.0344772819296004
   K    Mn   O 
     2     4     8
Direct
     0.2500059821860868    0.9579092132869974    0.6646464568018600
     0.7499915063388803    0.0420908359976955    0.3353534316374681
     0.0000025360316565    0.4999471290154549    0.4999520527537200
     0.5000026773238817    0.5000524741533466    0.5000480211057711
     0.5000024620460621    0.0000251309769118    0.0000316861821240
     0.0000025222140181    0.9999751344694258    0.9999679725247694
     0.4187003888304716    0.4504346930104803    0.8150483573585832
     0.0813086685092098    0.4504458883450576    0.8150598835410329
     0.5768198761263046    0.9862066928345675    0.6581748542708828
     0.9231698761763080    0.9862802897299027    0.6581828402208557
     0.9186984256995149    0.5495699906213209    0.1849678675565475
     0.5813069369466959    0.5495490616660018    0.1849243048219459
     0.4231692034848097    0.0137252386900618    0.3418049066204108
     0.0768189380860999    0.0137882272027754    0.3418373646040287
 
  0.00000000E+00  0.00000000E+00  0.00000000E+00
  0.00000000E+00  0.00000000E+00  0.00000000E+00
  0.00000000E+00  0.00000000E+00  0.00000000E+00
  0.00000000E+00  0.00000000E+00  0.00000000E+00
  0.00000000E+00  0.00000000E+00  0.00000000E+00
  0.00000000E+00  0.00000000E+00  0.00000000E+00
  0.00000000E+00  0.00000000E+00  0.00000000E+00
  0.00000000E+00  0.00000000E+00  0.00000000E+00
  0.00000000E+00  0.00000000E+00  0.00000000E+00
  0.00000000E+00  0.00000000E+00  0.00000000E+00
  0.00000000E+00  0.00000000E+00  0.00000000E+00
  0.00000000E+00  0.00000000E+00  0.00000000E+00
  0.00000000E+00  0.00000000E+00  0.00000000E+00
  0.00000000E+00  0.00000000E+00  0.00000000E+00
