K  Mn O                                 
    1.000000000000000     
    -4.8850061236532252    4.8851828827155179    4.2533083002676273
     4.8850237435504633   -4.8851503440230637    4.2532880382450928
     4.8844862642932583    4.8848987787664804   -4.2532693160744479
   K    Mn   O 
     2    12    24
Direct
     0.2937691553114312    0.2937662650966242    0.9999874019193163
     0.7062305100820973    0.7062392653369177    0.0000188067925121
     0.6651649263159267    0.8484634362930111    0.5136395314106234
     0.4853021770098644    0.0001515797073317    0.8195409283828371
     0.8193809890324211    0.3342378640025386    0.8195498602896573
     0.5146922043497562    0.9998345764414485    0.1804434335396612
     0.6658040371608611    0.4853616105887485    0.4851844824406577
     0.3348183848795059    0.1515302731593314    0.4863376887677462
     0.3341869950745799    0.5146392232418928    0.5147957368994076
     0.0001673796557250    0.1806108780905017    0.5148250961658779
     0.1515113884089340    0.6651764492537633    0.8166967669872299
     0.1806170755136347    0.6657522843209691    0.1804349718087740
     0.8484893967012392    0.3348133664403466    0.1832942868948903
     0.9998122760491059    0.8193786268788315    0.4851562933900643
     0.6627050981430618    0.0414521268107271    0.7041670702861053
     0.3209917112326500    0.9630683745059332    0.9529229250325495
     0.6543548275921105    0.3003155013578454    0.9546734118096400
     0.7084065765946082    0.0007722446543588    0.3738135925101780
     0.6269744039752243    0.3345873772039701    0.6262075457875854
     0.2916144723769715    0.9992302384750246    0.6262047042049763
     0.6789998298739486    0.0369368567209716    0.0470754324485588
     0.3372930437467489    0.9585474024404870    0.2958315115424419
     0.6654601481921296    0.2916256925550044    0.2924007495557276
     0.3003034077253991    0.3456638288401334    0.6459646081392953
     0.9630606269514247    0.0101859819429051    0.6420954276871945
     0.6319013893221214    0.6790322186668186    0.6420964809640584
     0.0369470174814538    0.9898265173930041    0.3579211813126711
     0.6997118213106719    0.6543466503589584    0.3540610300852026
     0.3681007551774674    0.3209758187018622    0.3579195041311580
     0.9992134821249501    0.3730530276915305    0.7075998660893236
     0.3345329345038504    0.7083716632390507    0.7075943128917606
     0.9898511479526073    0.6319327803149239    0.9529247345773431
     0.3730403495356949    0.6654095604987604    0.3738109103947915
     0.0414349992077047    0.3372313527835182    0.3786841350242587
     0.9585847002519174    0.6627602983314542    0.6213271603830537
     0.0101427046534727    0.3680749272520186    0.0470749065773706
     0.3456371152635301    0.6996930969778248    0.0453275774607848
     0.0007855312651822    0.6269497634306606    0.2923969154147038
 
  0.00000000E+00  0.00000000E+00  0.00000000E+00
  0.00000000E+00  0.00000000E+00  0.00000000E+00
  0.00000000E+00  0.00000000E+00  0.00000000E+00
  0.00000000E+00  0.00000000E+00  0.00000000E+00
  0.00000000E+00  0.00000000E+00  0.00000000E+00
  0.00000000E+00  0.00000000E+00  0.00000000E+00
  0.00000000E+00  0.00000000E+00  0.00000000E+00
  0.00000000E+00  0.00000000E+00  0.00000000E+00
  0.00000000E+00  0.00000000E+00  0.00000000E+00
  0.00000000E+00  0.00000000E+00  0.00000000E+00
  0.00000000E+00  0.00000000E+00  0.00000000E+00
  0.00000000E+00  0.00000000E+00  0.00000000E+00
  0.00000000E+00  0.00000000E+00  0.00000000E+00
  0.00000000E+00  0.00000000E+00  0.00000000E+00
  0.00000000E+00  0.00000000E+00  0.00000000E+00
  0.00000000E+00  0.00000000E+00  0.00000000E+00
  0.00000000E+00  0.00000000E+00  0.00000000E+00
  0.00000000E+00  0.00000000E+00  0.00000000E+00
  0.00000000E+00  0.00000000E+00  0.00000000E+00
  0.00000000E+00  0.00000000E+00  0.00000000E+00
  0.00000000E+00  0.00000000E+00  0.00000000E+00
  0.00000000E+00  0.00000000E+00  0.00000000E+00
  0.00000000E+00  0.00000000E+00  0.00000000E+00
  0.00000000E+00  0.00000000E+00  0.00000000E+00
  0.00000000E+00  0.00000000E+00  0.00000000E+00
  0.00000000E+00  0.00000000E+00  0.00000000E+00
  0.00000000E+00  0.00000000E+00  0.00000000E+00
  0.00000000E+00  0.00000000E+00  0.00000000E+00
  0.00000000E+00  0.00000000E+00  0.00000000E+00
  0.00000000E+00  0.00000000E+00  0.00000000E+00
  0.00000000E+00  0.00000000E+00  0.00000000E+00
  0.00000000E+00  0.00000000E+00  0.00000000E+00
  0.00000000E+00  0.00000000E+00  0.00000000E+00
  0.00000000E+00  0.00000000E+00  0.00000000E+00
  0.00000000E+00  0.00000000E+00  0.00000000E+00
  0.00000000E+00  0.00000000E+00  0.00000000E+00
  0.00000000E+00  0.00000000E+00  0.00000000E+00
  0.00000000E+00  0.00000000E+00  0.00000000E+00
