K  Mn O                                 
    1.000000000000000     
    -3.1120546707153482    3.1124112655076508    5.8171557113244443
     3.1126252930612130   -3.1124595148327234    5.8166551762767469
     3.1120277456300998    3.1124198203348823   -5.8171424325385868
   K    Mn   O 
     4     4     8
Direct
     0.1403401415865077    0.4028019717243278    0.7375631045398752
     0.6652601453721648    0.4028193780627290    0.2624714655619207
     0.5971784515430175    0.3347001951643903    0.7375037244409020
     0.5972375502300641    0.8596671915446299    0.2624204748983550
     0.0743992178882455    0.8335027564899948    0.2409030477996494
     0.1664862338874808    0.9256831785298718    0.7591732101375184
     0.1664969944199364    0.4074346108551682    0.2409122703394114
     0.5926365563878503    0.8334973599681342    0.7591543677742687
     0.3514369857388138    0.1603831626086849    0.1910149503260377
     0.8395697131547757    0.6484949940204064    0.8089591536478360
     0.8396042441166763    0.0306574358486432    0.1910801969771325
     0.9693573623396209    0.1604285772752441    0.8088960779245329
     0.3478642736522396    0.0434509034092627    0.6956335264261844
     0.9565117747164643    0.6521910508027453    0.3043395130938683
     0.3477951750615708    0.6521724133663986    0.6956429759443808
     0.3478251799045706    0.6521148203293688    0.3043319401681275
 
  0.00000000E+00  0.00000000E+00  0.00000000E+00
  0.00000000E+00  0.00000000E+00  0.00000000E+00
  0.00000000E+00  0.00000000E+00  0.00000000E+00
  0.00000000E+00  0.00000000E+00  0.00000000E+00
  0.00000000E+00  0.00000000E+00  0.00000000E+00
  0.00000000E+00  0.00000000E+00  0.00000000E+00
  0.00000000E+00  0.00000000E+00  0.00000000E+00
  0.00000000E+00  0.00000000E+00  0.00000000E+00
  0.00000000E+00  0.00000000E+00  0.00000000E+00
  0.00000000E+00  0.00000000E+00  0.00000000E+00
  0.00000000E+00  0.00000000E+00  0.00000000E+00
  0.00000000E+00  0.00000000E+00  0.00000000E+00
  0.00000000E+00  0.00000000E+00  0.00000000E+00
  0.00000000E+00  0.00000000E+00  0.00000000E+00
  0.00000000E+00  0.00000000E+00  0.00000000E+00
  0.00000000E+00  0.00000000E+00  0.00000000E+00
