K  Mn O                                 
    1.000000000000000     
    -3.1568502087533354    3.1568445123876381    5.3252149321792235
     3.1568821454080420   -3.1568124043022681    5.3252148265318180
     3.1568544263890517    3.1568166038230361   -5.3251956753022665
   K    Mn   O 
     4     4     8
Direct
     0.3750000736266214    0.1249996830945391    0.2499997345900663
     0.8749999431556086    0.1249996779835350    0.7499996088991204
     0.8749999047006605    0.6249990715815322    0.7499991570712209
     0.8750000593614871    0.1249992024499059    0.2499991287587105
     0.3749994377137270    0.6249907111816408    0.7499904550174579
     0.3749973140578640    0.1250028605701260    0.7500055719506443
     0.3750026449881260    0.6250077963140498    0.2500051430467804
     0.8750002938551892    0.6249906094277655    0.2499912093381429
     0.1914965747713923    0.3797507141413807    0.8117407718160226
     0.6202490310783941    0.4320053209079227    0.8117572434165606
     0.6202472754651970    0.8085009465164543    0.1882533013863431
     0.5680084519189705    0.3797488373650721    0.1882531994604360
     0.1297510682596570    0.8180047306450047    0.6882526849527880
     0.5585035865379274    0.8702444467234608    0.6882542541037604
     0.1819916411543829    0.8702462607147518    0.3117417595941528
     0.1297526993547953    0.4415091303828587    0.3117567765977931
 
  0.00000000E+00  0.00000000E+00  0.00000000E+00
  0.00000000E+00  0.00000000E+00  0.00000000E+00
  0.00000000E+00  0.00000000E+00  0.00000000E+00
  0.00000000E+00  0.00000000E+00  0.00000000E+00
  0.00000000E+00  0.00000000E+00  0.00000000E+00
  0.00000000E+00  0.00000000E+00  0.00000000E+00
  0.00000000E+00  0.00000000E+00  0.00000000E+00
  0.00000000E+00  0.00000000E+00  0.00000000E+00
  0.00000000E+00  0.00000000E+00  0.00000000E+00
  0.00000000E+00  0.00000000E+00  0.00000000E+00
  0.00000000E+00  0.00000000E+00  0.00000000E+00
  0.00000000E+00  0.00000000E+00  0.00000000E+00
  0.00000000E+00  0.00000000E+00  0.00000000E+00
  0.00000000E+00  0.00000000E+00  0.00000000E+00
  0.00000000E+00  0.00000000E+00  0.00000000E+00
  0.00000000E+00  0.00000000E+00  0.00000000E+00
