K  Mn O                                 
    1.000000000000000     
     6.2808712065909438    0.0200044434185549   -0.0048623902498719
     0.9212021758105839   10.0904916975991163   -0.0186331660617601
     1.0684050816537631    3.9695263010983250   12.4102554900002513
   K    Mn   O 
    12    16    32
Direct
     0.7469162887541291    0.7015297539215102    0.7528836112890425
     0.7519803479592140    0.6986151580850827    0.2503486639859558
     0.4789826314236115    0.0745849164716111    0.7492576066836125
     0.0260570146802301    0.3911409469800041    0.2473959498706792
     0.4820915773845478    0.0529819585892679    0.2508521928844594
     0.2494462129235054    0.7030096219286760    0.2518487364514724
     0.2348902239293902    0.7877062398867363    0.7498457057888415
     0.0030031846088387    0.4107378689692810    0.7507297552944877
     0.9694565140907264    0.0823362863890372    0.7460201560567690
     0.9811960387132690    0.0589077350922966    0.2482113026910158
     0.4915646106356840    0.4207029354368077    0.7490236007650862
     0.5279502979630554    0.3997171900226522    0.2532052937731447
     0.2428282934635061    0.7461330279680648    0.0009804573268466
     0.2369271720123201    0.7431734897468166    0.4982006380757688
     0.7355605058667495    0.2463767157288284    0.9996286061908651
     0.7467148045041362    0.2415135207889972    0.5025361963261121
     0.7442902056860180    0.7457221621436110    0.0005685294321764
     0.7424563496039258    0.7420365070371776    0.5002894583288254
     0.2309555495805179    0.2458494311099582    0.9961682665062260
     0.2381127443093397    0.2427408033118709    0.4964595041478928
     0.9933938980668308    0.9949228022723317    0.9994694363602216
     0.9895049997441652    0.9894860788760775    0.5040480561016836
     0.4832998797897395    0.4961830632177625    0.9999055002278675
     0.4932671190669172    0.4936909733690937    0.4964994392418937
     0.5031838617617964    0.9960324295732734    0.0065292836657785
     0.4924896592471557    0.9903784366866973    0.5055551395058319
     0.9801380652007485    0.4966990505443129    0.9966196624120318
     0.9932470395381454    0.4945220743961291    0.4958392864615259
     0.7603252233600336    0.9461235618688060    0.9273076434585725
     0.7577429480549920    0.9413018598168391    0.4296283224411397
     0.2170616301568619    0.4350980414639850    0.9145402487420387
     0.2217906791595990    0.4368715109946669    0.4074718445948112
     0.2161776026093170    0.9396882470173108    0.9108465085262842
     0.2170722026525889    0.9348676852668737    0.4160337363200696
     0.7126913831769469    0.4349505396761177    0.9119649072287792
     0.7608113730396280    0.4429490188954392    0.4209601868664103
     0.9736755950011501    0.6875658148320373    0.9166177791185682
     0.9696952058145145    0.6844409793104120    0.4138382272871429
     0.5044440474176448    0.1922680911059445    0.9267086968673798
     0.4723101707603506    0.1789054428225401    0.4177194487063425
     0.4772196035254301    0.6894523279444272    0.9174069360168000
     0.4777280873315829    0.6858622303178344    0.4164388844244030
     0.9636120119984134    0.1857186845800561    0.9131085864597578
     0.9669992884714459    0.1777229238249410    0.4164434615980337
     0.0130312636668539    0.8003743730377478    0.5865479965406805
     0.0161499654214696    0.8108165634615344    0.0860144440996185
     0.5100819783983245    0.3036873847718070    0.5820038356681619
     0.5058442726592354    0.2999237263017364    0.0862209330345042
     0.5077073696695502    0.7984714093834642    0.5846692489891845
     0.5126728040606908    0.8086791809158265    0.0844648167191806
     0.0154626424701017    0.3060161551912713    0.5819109851440555
     0.9662202221854918    0.2961336495211473    0.0721174231714020
     0.2251174053176132    0.5426283071003789    0.5697398240636866
     0.2634266741335684    0.5541930862826930    0.0898252189255406
     0.7594637001954202    0.0481889534564979    0.5903817320797242
     0.7635557773460617    0.0555760806896124    0.0861892043199733
     0.7658878366867675    0.5493145879788046    0.5852766740701210
     0.7648955617691923    0.5545512647140695    0.0890531301959207
     0.2231658981564575    0.0419892188637981    0.5786536931021998
     0.2279754948244612    0.0494919600474415    0.0716553453734058
 
  0.00000000E+00  0.00000000E+00  0.00000000E+00
  0.00000000E+00  0.00000000E+00  0.00000000E+00
  0.00000000E+00  0.00000000E+00  0.00000000E+00
  0.00000000E+00  0.00000000E+00  0.00000000E+00
  0.00000000E+00  0.00000000E+00  0.00000000E+00
  0.00000000E+00  0.00000000E+00  0.00000000E+00
  0.00000000E+00  0.00000000E+00  0.00000000E+00
  0.00000000E+00  0.00000000E+00  0.00000000E+00
  0.00000000E+00  0.00000000E+00  0.00000000E+00
  0.00000000E+00  0.00000000E+00  0.00000000E+00
  0.00000000E+00  0.00000000E+00  0.00000000E+00
  0.00000000E+00  0.00000000E+00  0.00000000E+00
  0.00000000E+00  0.00000000E+00  0.00000000E+00
  0.00000000E+00  0.00000000E+00  0.00000000E+00
  0.00000000E+00  0.00000000E+00  0.00000000E+00
  0.00000000E+00  0.00000000E+00  0.00000000E+00
  0.00000000E+00  0.00000000E+00  0.00000000E+00
  0.00000000E+00  0.00000000E+00  0.00000000E+00
  0.00000000E+00  0.00000000E+00  0.00000000E+00
  0.00000000E+00  0.00000000E+00  0.00000000E+00
  0.00000000E+00  0.00000000E+00  0.00000000E+00
  0.00000000E+00  0.00000000E+00  0.00000000E+00
  0.00000000E+00  0.00000000E+00  0.00000000E+00
  0.00000000E+00  0.00000000E+00  0.00000000E+00
  0.00000000E+00  0.00000000E+00  0.00000000E+00
  0.00000000E+00  0.00000000E+00  0.00000000E+00
  0.00000000E+00  0.00000000E+00  0.00000000E+00
  0.00000000E+00  0.00000000E+00  0.00000000E+00
  0.00000000E+00  0.00000000E+00  0.00000000E+00
  0.00000000E+00  0.00000000E+00  0.00000000E+00
  0.00000000E+00  0.00000000E+00  0.00000000E+00
  0.00000000E+00  0.00000000E+00  0.00000000E+00
  0.00000000E+00  0.00000000E+00  0.00000000E+00
  0.00000000E+00  0.00000000E+00  0.00000000E+00
  0.00000000E+00  0.00000000E+00  0.00000000E+00
  0.00000000E+00  0.00000000E+00  0.00000000E+00
  0.00000000E+00  0.00000000E+00  0.00000000E+00
  0.00000000E+00  0.00000000E+00  0.00000000E+00
  0.00000000E+00  0.00000000E+00  0.00000000E+00
  0.00000000E+00  0.00000000E+00  0.00000000E+00
  0.00000000E+00  0.00000000E+00  0.00000000E+00
  0.00000000E+00  0.00000000E+00  0.00000000E+00
  0.00000000E+00  0.00000000E+00  0.00000000E+00
  0.00000000E+00  0.00000000E+00  0.00000000E+00
  0.00000000E+00  0.00000000E+00  0.00000000E+00
  0.00000000E+00  0.00000000E+00  0.00000000E+00
  0.00000000E+00  0.00000000E+00  0.00000000E+00
  0.00000000E+00  0.00000000E+00  0.00000000E+00
  0.00000000E+00  0.00000000E+00  0.00000000E+00
  0.00000000E+00  0.00000000E+00  0.00000000E+00
  0.00000000E+00  0.00000000E+00  0.00000000E+00
  0.00000000E+00  0.00000000E+00  0.00000000E+00
  0.00000000E+00  0.00000000E+00  0.00000000E+00
  0.00000000E+00  0.00000000E+00  0.00000000E+00
  0.00000000E+00  0.00000000E+00  0.00000000E+00
  0.00000000E+00  0.00000000E+00  0.00000000E+00
  0.00000000E+00  0.00000000E+00  0.00000000E+00
  0.00000000E+00  0.00000000E+00  0.00000000E+00
  0.00000000E+00  0.00000000E+00  0.00000000E+00
  0.00000000E+00  0.00000000E+00  0.00000000E+00
